*SPEF "ieee 1481-1999"
*DESIGN "CLB"
*DATE "16:48:05 Saturday October 03, 2026"
*VENDOR "The OpenROAD Project"
*PROGRAM "OpenROAD"
*VERSION "edf00dff99f6c40d67a30c0e22a8191c5d2ed9d6"
*DESIGN_FLOW "NAME_SCOPE LOCAL" "PIN_CAP NONE"
*DIVIDER /
*DELIMITER :
*BUS_DELIMITER []
*T_UNIT 1 NS
*C_UNIT 1 PF
*R_UNIT 1 OHM
*L_UNIT 1 HENRY

*NAME_MAP
*3 carry_in
*4 carry_out
*5 clk
*6 clk_out
*7 horz_bus_in[0]
*8 horz_bus_in[1]
*9 horz_bus_in[2]
*10 horz_bus_in[3]
*11 horz_bus_out[0]
*12 horz_bus_out[1]
*13 horz_bus_out[2]
*14 horz_bus_out[3]
*15 reset
*16 reset_out
*17 shift_clk
*18 shift_clk_out
*19 shift_data_in
*20 shift_data_out
*21 vert_bus_in[0]
*22 vert_bus_in[1]
*23 vert_bus_in[2]
*24 vert_bus_in[3]
*25 vert_bus_out[0]
*26 vert_bus_out[1]
*27 vert_bus_out[2]
*28 vert_bus_out[3]
*29 _00_
*30 _01_
*31 _02_
*32 _03_
*33 _04_
*34 _05_
*35 _06_
*36 _07_
*37 _08_
*38 _09_
*39 _10_
*40 _11_
*41 _12_
*42 _13_
*43 _14_
*44 _15_
*45 _16_
*46 _17_
*47 _18_
*48 _19_
*49 _20_
*50 _21_
*51 _22_
*52 _23_
*53 _24_
*54 clknet_0_clk
*55 clknet_1_0__leaf_clk
*56 clknet_1_1__leaf_clk
*57 input_mux_a_sel
*58 input_mux_b_sel
*59 input_mux_c_sel\[0\]
*60 input_mux_c_sel\[1\]
*61 lut\[0\]
*62 lut\[1\]
*63 lut\[2\]
*64 lut\[3\]
*65 lut\[4\]
*66 lut\[5\]
*67 lut\[6\]
*68 lut\[7\]
*69 major_horz2_sel\[0\]
*70 major_horz2_sel\[1\]
*71 major_horz2_sel\[2\]
*72 major_horz3_sel\[0\]
*73 major_horz3_sel\[1\]
*74 major_horz3_sel\[2\]
*75 minor_horz_sel\[0\]
*76 minor_horz_sel\[1\]
*77 minor_vert_sel\[0\]
*78 minor_vert_sel\[1\]
*79 minor_vert_sel\[2\]
*80 minor_vert_sel\[3\]
*81 net1
*82 net10
*83 net11
*84 net12
*85 net13
*86 net14
*87 net15
*88 net16
*89 net17
*90 net18
*91 net19
*92 net2
*93 net20
*94 net21
*95 net22
*96 net23
*97 net24
*98 net25
*99 net26
*100 net27
*101 net28
*102 net3
*103 net4
*104 net5
*105 net6
*106 net7
*107 net8
*108 net9
*109 operation_ff
*110 FILLER_0_26
*111 FILLER_0_51
*112 FILLER_0_61
*113 FILLER_0_9
*114 FILLER_10_29
*115 FILLER_10_61
*116 FILLER_11_55
*117 FILLER_11_57
*118 FILLER_12_26
*119 FILLER_12_3
*120 FILLER_12_45
*121 FILLER_13_3
*122 FILLER_13_61
*123 FILLER_14_3
*124 FILLER_14_57
*125 FILLER_15_3
*126 FILLER_15_57
*127 FILLER_1_3
*128 FILLER_1_55
*129 FILLER_1_57
*130 FILLER_2_6
*131 FILLER_2_61
*132 FILLER_3_20
*133 FILLER_3_57
*134 FILLER_3_6
*135 FILLER_4_60
*136 FILLER_5_31
*137 FILLER_5_47
*138 FILLER_5_55
*139 FILLER_5_57
*140 FILLER_6_26
*141 FILLER_6_45
*142 FILLER_6_56
*143 FILLER_7_3
*144 FILLER_8_29
*145 FILLER_8_3
*146 FILLER_8_52
*147 FILLER_9_21
*148 FILLER_9_38
*149 FILLER_9_57
*150 PHY_EDGE_ROW_0_Left_16
*151 PHY_EDGE_ROW_0_Right_0
*152 PHY_EDGE_ROW_10_Left_26
*153 PHY_EDGE_ROW_10_Right_10
*154 PHY_EDGE_ROW_11_Left_27
*155 PHY_EDGE_ROW_11_Right_11
*156 PHY_EDGE_ROW_12_Left_28
*157 PHY_EDGE_ROW_12_Right_12
*158 PHY_EDGE_ROW_13_Left_29
*159 PHY_EDGE_ROW_13_Right_13
*160 PHY_EDGE_ROW_14_Left_30
*161 PHY_EDGE_ROW_14_Right_14
*162 PHY_EDGE_ROW_15_Left_31
*163 PHY_EDGE_ROW_15_Right_15
*164 PHY_EDGE_ROW_1_Left_17
*165 PHY_EDGE_ROW_1_Right_1
*166 PHY_EDGE_ROW_2_Left_18
*167 PHY_EDGE_ROW_2_Right_2
*168 PHY_EDGE_ROW_3_Left_19
*169 PHY_EDGE_ROW_3_Right_3
*170 PHY_EDGE_ROW_4_Left_20
*171 PHY_EDGE_ROW_4_Right_4
*172 PHY_EDGE_ROW_5_Left_21
*173 PHY_EDGE_ROW_5_Right_5
*174 PHY_EDGE_ROW_6_Left_22
*175 PHY_EDGE_ROW_6_Right_6
*176 PHY_EDGE_ROW_7_Left_23
*177 PHY_EDGE_ROW_7_Right_7
*178 PHY_EDGE_ROW_8_Left_24
*179 PHY_EDGE_ROW_8_Right_8
*180 PHY_EDGE_ROW_9_Left_25
*181 PHY_EDGE_ROW_9_Right_9
*182 TAP_TAPCELL_ROW_0_32
*183 TAP_TAPCELL_ROW_0_33
*184 TAP_TAPCELL_ROW_10_43
*185 TAP_TAPCELL_ROW_11_44
*186 TAP_TAPCELL_ROW_12_45
*187 TAP_TAPCELL_ROW_13_46
*188 TAP_TAPCELL_ROW_14_47
*189 TAP_TAPCELL_ROW_15_48
*190 TAP_TAPCELL_ROW_15_49
*191 TAP_TAPCELL_ROW_1_34
*192 TAP_TAPCELL_ROW_2_35
*193 TAP_TAPCELL_ROW_3_36
*194 TAP_TAPCELL_ROW_4_37
*195 TAP_TAPCELL_ROW_5_38
*196 TAP_TAPCELL_ROW_6_39
*197 TAP_TAPCELL_ROW_7_40
*198 TAP_TAPCELL_ROW_8_41
*199 TAP_TAPCELL_ROW_9_42
*200 _25_
*201 _26_
*202 _27_
*203 _28_
*204 _29_
*205 _30_
*206 _31_
*207 _32_
*208 _33_
*209 _34_
*210 _35_
*211 _36_
*212 _37_
*213 _38_
*214 _39_
*215 _40_
*216 _41_
*217 _42_
*218 _43_
*219 _44_
*220 _45_
*221 _46_
*222 _47_
*223 _48_
*224 _49_
*225 _50_
*226 _51_
*227 _52_
*228 _53_
*229 _54_
*230 _55_
*231 _56_
*232 _57_
*233 _58_
*234 _59_
*235 _60_
*236 _61_
*237 _62_
*238 _63_
*239 _64_
*240 _65_
*241 _66_
*242 _67_
*243 _68_
*244 _69_
*245 _70_
*246 _71_
*247 _72_
*248 _73_
*249 _74_
*250 _75_
*251 _76_
*252 _77_
*253 _78_
*254 _79_
*255 _80_
*256 _81_
*257 _82_
*258 _83_
*259 _84_
*260 _85_
*261 _86_
*262 _87_
*263 clkbuf_0_clk
*264 clkbuf_1_0__f_clk
*265 clkbuf_1_1__f_clk
*266 clkload0
*267 fanout26
*268 fanout27
*269 fanout28
*270 input1
*271 input10
*272 input11
*273 input12
*274 input2
*275 input3
*276 input4
*277 input5
*278 input6
*279 input7
*280 input8
*281 input9
*282 output13
*283 output14
*284 output15
*285 output16
*286 output17
*287 output18
*288 output19
*289 output20
*290 output21
*291 output22
*292 output23
*293 output24
*294 output25

*PORTS
carry_in I
carry_out O
clk I
clk_out O
horz_bus_in[0] I
horz_bus_in[1] I
horz_bus_in[2] I
horz_bus_in[3] I
horz_bus_out[0] O
horz_bus_out[1] O
horz_bus_out[2] O
horz_bus_out[3] O
reset I
reset_out O
shift_clk I
shift_clk_out O
shift_data_in I
shift_data_out O
vert_bus_in[0] I
vert_bus_in[1] I
vert_bus_in[2] I
vert_bus_in[3] I
vert_bus_out[0] O
vert_bus_out[1] O
vert_bus_out[2] O
vert_bus_out[3] O

*D_NET *3 0.000367107
*CONN
*P carry_in I
*I *270:A I *D sky130_fd_sc_hd__clkbuf_1
*CAP
1 carry_in 0.000183553
2 *270:A 0.000183553
*RES
1 carry_in *270:A 41.4179 
*END

*D_NET *4 8.05342e-05
*CONN
*P carry_out O
*I *282:X O *D sky130_fd_sc_hd__buf_2
*CAP
1 carry_out 4.02671e-05
2 *282:X 4.02671e-05
*RES
1 *282:X carry_out 38.87 
*END

*D_NET *5 0.00119037
*CONN
*P clk I
*I *263:A I *D sky130_fd_sc_hd__clkbuf_16
*CAP
1 clk 0.000274579
2 *263:A 0.000274579
3 *263:A *233:A2_N 6.68919e-05
4 *263:A *31:14 0.000265472
5 *263:A *74:12 0.000122038
6 *263:A *105:37 0.000123239
7 *263:A *105:47 6.35704e-05
*RES
1 clk *263:A 45.0429 
*END

*D_NET *6 0.000767874
*CONN
*P clk_out O
*I *283:X O *D sky130_fd_sc_hd__buf_1
*CAP
1 clk_out 0.000199366
2 *283:X 0.000199366
3 clk_out *283:A 0.000265466
4 clk_out *84:16 0
5 clk_out *86:20 3.70187e-05
6 clk_out *87:20 6.66579e-05
*RES
1 *283:X clk_out 41.9564 
*END

*D_NET *7 0.000583899
*CONN
*P horz_bus_in[0] I
*I *274:A I *D sky130_fd_sc_hd__clkbuf_1
*CAP
1 horz_bus_in[0] 0.000263454
2 *274:A 0.000263454
3 *274:A *281:A 2.82105e-05
4 *274:A *108:8 2.87815e-05
*RES
1 horz_bus_in[0] *274:A 47.9032 
*END

*D_NET *8 0.00094715
*CONN
*P horz_bus_in[1] I
*I *275:A I *D sky130_fd_sc_hd__clkbuf_1
*CAP
1 horz_bus_in[1] 0.000461661
2 *275:A 0.000461661
3 *275:A *9:21 0
4 *275:A *17:17 1.28404e-05
5 *275:A *76:18 1.09886e-05
*RES
1 horz_bus_in[1] *275:A 47.7969 
*END

*D_NET *9 0.00229301
*CONN
*P horz_bus_in[2] I
*I *276:A I *D sky130_fd_sc_hd__buf_1
*CAP
1 horz_bus_in[2] 0.000811053
2 *276:A 0
3 *9:21 0.000811053
4 *9:21 *17:17 0.000288256
5 *9:21 *57:26 0.000120658
6 *9:21 *103:18 0.000261993
7 *275:A *9:21 0
*RES
1 horz_bus_in[2] *9:21 29.6428 
2 *9:21 *276:A 23 
*END

*D_NET *10 0.00276258
*CONN
*P horz_bus_in[3] I
*I *277:A I *D sky130_fd_sc_hd__buf_1
*CAP
1 horz_bus_in[3] 0.000743887
2 *277:A 0
3 *10:19 0.000743887
4 *10:19 vert_bus_out[0] 5.1647e-05
5 *10:19 *238:CLK 2.41378e-06
6 *10:19 *291:A 5.50049e-05
7 *10:19 *17:17 0.00062831
8 *10:19 *95:10 0.000537427
*RES
1 horz_bus_in[3] *10:19 34.3195 
2 *10:19 *277:A 23 
*END

*D_NET *11 0.00073987
*CONN
*P horz_bus_out[0] O
*I *284:X O *D sky130_fd_sc_hd__buf_2
*CAP
1 horz_bus_out[0] 0.000332383
2 *284:X 0.000332383
3 horz_bus_out[0] reset_out 8.06804e-06
4 horz_bus_out[0] *91:34 6.70361e-05
*RES
1 *284:X horz_bus_out[0] 48.7003 
*END

*D_NET *12 0.0007115
*CONN
*P horz_bus_out[1] O
*I *285:X O *D sky130_fd_sc_hd__buf_2
*CAP
1 horz_bus_out[1] 0.000328235
2 *285:X 0.000328235
3 horz_bus_out[1] *285:A 5.50303e-05
*RES
1 *285:X horz_bus_out[1] 48.4554 
*END

*D_NET *13 0.000566922
*CONN
*P horz_bus_out[2] O
*I *286:X O *D sky130_fd_sc_hd__buf_2
*CAP
1 horz_bus_out[2] 0.000280374
2 *286:X 0.000280374
3 horz_bus_out[2] *286:A 6.17437e-06
*RES
1 *286:X horz_bus_out[2] 48.3049 
*END

*D_NET *14 0.000682627
*CONN
*P horz_bus_out[3] O
*I *287:X O *D sky130_fd_sc_hd__buf_2
*CAP
1 horz_bus_out[3] 0.000302343
2 *287:X 0.000302343
3 horz_bus_out[3] shift_data_out 0
4 horz_bus_out[3] *20:18 0
5 horz_bus_out[3] *50:10 1.72918e-05
6 horz_bus_out[3] *72:10 1.01436e-05
7 horz_bus_out[3] *93:14 5.05059e-05
*RES
1 *287:X horz_bus_out[3] 47.5393 
*END

*D_NET *15 0.00510979
*CONN
*P reset I
*I *278:A I *D sky130_fd_sc_hd__buf_1
*CAP
1 reset 0.00174683
2 *278:A 0
3 *15:19 0.000263395
4 *15:11 0.00201023
5 *15:11 *228:A1 6.08617e-05
6 *15:11 *256:D 0.000195248
7 *15:11 *258:D 0.000150977
8 *15:11 *48:10 6.57551e-05
9 *15:11 *73:12 0.000136486
10 *15:11 *73:30 7.70737e-05
11 *15:11 *74:29 0.000135037
12 *15:19 *201:A 9.67842e-05
13 *15:19 *262:A 3.23186e-05
14 *15:19 *50:10 6.01055e-05
15 *15:19 *93:14 7.86958e-05
16 *15:19 *105:23 0
*RES
1 reset *15:11 39.1943 
2 *15:11 *15:19 34.4121 
3 *15:19 *278:A 23 
*END

*D_NET *16 0.0007644
*CONN
*P reset_out O
*I *288:X O *D sky130_fd_sc_hd__buf_2
*CAP
1 reset_out 0.000299415
2 *288:X 0.000299415
3 reset_out *87:20 5.37348e-06
4 reset_out *91:34 0.000152128
5 horz_bus_out[0] reset_out 8.06804e-06
*RES
1 *288:X reset_out 42.4329 
*END

*D_NET *17 0.00817412
*CONN
*P shift_clk I
*I *279:A I *D sky130_fd_sc_hd__clkbuf_1
*CAP
1 shift_clk 0.00299786
2 *279:A 5.86721e-05
3 *17:17 0.00305653
4 *279:A *76:18 9.58714e-05
5 *17:17 vert_bus_out[0] 2.81089e-05
6 *17:17 *57:26 3.49484e-05
7 *17:17 *76:18 0
8 *17:17 *76:29 0
9 *17:17 *95:10 1.13589e-05
10 *17:17 *96:12 0.000118423
11 *17:17 *103:18 3.80082e-05
12 *17:17 *109:55 0.00080494
13 *275:A *17:17 1.28404e-05
14 *9:21 *17:17 0.000288256
15 *10:19 *17:17 0.00062831
*RES
1 shift_clk *17:17 44.6738 
2 *17:17 *279:A 39.0979 
*END

*D_NET *18 0.000728284
*CONN
*P shift_clk_out O
*I *289:X O *D sky130_fd_sc_hd__buf_2
*CAP
1 shift_clk_out 0.000343006
2 *289:X 0.000343006
3 shift_clk_out *93:14 3.71251e-05
4 shift_clk_out *105:37 5.14746e-06
*RES
1 *289:X shift_clk_out 48.9282 
*END

*D_NET *19 0.00603645
*CONN
*P shift_data_in I
*I *280:A I *D sky130_fd_sc_hd__clkbuf_1
*CAP
1 shift_data_in 0.00234746
2 *280:A 0
3 *19:15 0.00234746
4 *19:15 *224:A0 3.44446e-05
5 *19:15 *225:S0 6.38845e-05
6 *19:15 *255:D 0.000176098
7 *19:15 *37:16 5.41385e-05
8 *19:15 *70:23 0.000133316
9 *19:15 *72:48 0.000181943
10 *19:15 *82:24 0
11 *19:15 *85:16 2.94495e-05
12 *19:15 *85:26 0.000345713
13 *19:15 *86:12 4.0371e-05
14 *19:15 *86:20 9.0869e-05
15 *19:15 *103:79 0.000132711
16 *19:15 *104:41 5.05236e-05
17 *19:15 *107:14 8.06804e-06
*RES
1 shift_data_in *19:15 44.9159 
2 *19:15 *280:A 23 
*END

*D_NET *20 0.00113755
*CONN
*P shift_data_out O
*I *290:X O *D sky130_fd_sc_hd__buf_2
*CAP
1 shift_data_out 7.62352e-05
2 *290:X 0.000351909
3 *20:18 0.000428144
4 *20:18 *30:14 0.000185803
5 *20:18 *49:10 3.70071e-06
6 *20:18 *93:14 8.63849e-05
7 *20:18 *94:22 5.37348e-06
8 horz_bus_out[3] shift_data_out 0
9 horz_bus_out[3] *20:18 0
*RES
1 *290:X *20:18 49.9966 
2 *20:18 shift_data_out 0.199733 
*END

*D_NET *21 0.000138818
*CONN
*P vert_bus_in[0] I
*I *281:A I *D sky130_fd_sc_hd__clkbuf_1
*CAP
1 vert_bus_in[0] 5.53037e-05
2 *281:A 5.53037e-05
3 *274:A *281:A 2.82105e-05
*RES
1 vert_bus_in[0] *281:A 40.0714 
*END

*D_NET *22 0.00410766
*CONN
*P vert_bus_in[1] I
*I *271:A I *D sky130_fd_sc_hd__clkbuf_1
*CAP
1 vert_bus_in[1] 0.00173016
2 *271:A 0
3 *22:21 0.00173016
4 *22:21 *64:12 9.41704e-05
5 *22:21 *81:8 2.93747e-05
6 *22:21 *82:8 0.000133734
7 *22:21 *86:20 2.26406e-05
8 *22:21 *87:20 2.05503e-05
9 *22:21 *91:34 0.000163299
10 *22:21 *92:10 0.000183572
11 *22:21 *102:33 0
*RES
1 vert_bus_in[1] *22:21 44.0897 
2 *22:21 *271:A 23 
*END

*D_NET *23 0.00223115
*CONN
*P vert_bus_in[2] I
*I *272:A I *D sky130_fd_sc_hd__buf_1
*CAP
1 vert_bus_in[2] 0.000443022
2 *272:A 0.000443022
3 *272:A *205:A0 0.000390297
4 *272:A *205:A1 0.000403946
5 *272:A *240:D 0.000298925
6 *272:A *38:10 2.98648e-05
7 *272:A *62:10 0.000192833
8 *272:A *83:12 6.17437e-06
9 *272:A *99:39 2.10884e-05
10 *272:A *99:45 1.97579e-06
11 *272:A *108:14 0
*RES
1 vert_bus_in[2] *272:A 49.6207 
*END

*D_NET *24 0.00105854
*CONN
*P vert_bus_in[3] I
*I *273:A I *D sky130_fd_sc_hd__buf_1
*CAP
1 vert_bus_in[3] 0.000297898
2 *273:A 0.000297898
3 *273:A *242:D 2.57449e-05
4 *273:A *283:A 0.000181919
5 *273:A *84:8 0.000145621
6 *273:A *84:16 1.09783e-05
7 *273:A *87:20 9.84851e-05
8 *273:A *108:14 0
*RES
1 vert_bus_in[3] *273:A 46.5757 
*END

*D_NET *25 0.00460695
*CONN
*P vert_bus_out[0] O
*I *291:X O *D sky130_fd_sc_hd__buf_2
*CAP
1 vert_bus_out[0] 0.00082163
2 *291:X 4.90165e-05
3 *25:8 0.000870646
4 vert_bus_out[0] *57:14 9.38027e-05
5 vert_bus_out[0] *76:29 0.00087066
6 vert_bus_out[0] *95:10 0.000573453
7 vert_bus_out[0] *96:12 0.00124046
8 *25:8 *291:A 7.53384e-06
9 *10:19 vert_bus_out[0] 5.1647e-05
10 *17:17 vert_bus_out[0] 2.81089e-05
*RES
1 *291:X *25:8 38.6214 
2 *25:8 vert_bus_out[0] 27.2807 
*END

*D_NET *26 0.000623541
*CONN
*P vert_bus_out[1] O
*I *292:X O *D sky130_fd_sc_hd__buf_2
*CAP
1 vert_bus_out[1] 0.000305074
2 *292:X 0.000305074
3 vert_bus_out[1] vert_bus_out[2] 5.85822e-06
4 vert_bus_out[1] *259:CLK 0
5 vert_bus_out[1] *97:14 7.53384e-06
*RES
1 *292:X vert_bus_out[1] 41.3971 
*END

*D_NET *27 0.00133041
*CONN
*P vert_bus_out[2] O
*I *293:X O *D sky130_fd_sc_hd__buf_2
*CAP
1 vert_bus_out[2] 0.000607347
2 *293:X 0.000607347
3 vert_bus_out[2] *259:CLK 5.50106e-05
4 vert_bus_out[2] *259:D 4.07542e-05
5 vert_bus_out[2] *97:14 1.40958e-05
6 vert_bus_out[1] vert_bus_out[2] 5.85822e-06
*RES
1 *293:X vert_bus_out[2] 45.7886 
*END

*D_NET *28 0.000158655
*CONN
*P vert_bus_out[3] O
*I *294:X O *D sky130_fd_sc_hd__buf_2
*CAP
1 vert_bus_out[3] 7.93276e-05
2 *294:X 7.93276e-05
*RES
1 *294:X vert_bus_out[3] 39.3464 
*END

*D_NET *29 0.00132789
*CONN
*I *234:D I *D sky130_fd_sc_hd__dfxtp_1
*I *233:X O *D sky130_fd_sc_hd__o2bb2a_1
*CAP
1 *234:D 0.00036943
2 *233:X 3.55839e-05
3 *29:8 0.000405014
4 *234:D *200:A 0.000119319
5 *234:D *260:A 2.25419e-05
6 *234:D *264:A 0.00018282
7 *234:D *82:34 6.17437e-06
8 *234:D *98:10 1.21972e-05
9 *29:8 *294:A 8.62876e-05
10 *29:8 *91:10 8.85189e-05
*RES
1 *233:X *29:8 39.2014 
2 *29:8 *234:D 43.8673 
*END

*D_NET *30 0.00204755
*CONN
*I *232:A1 I *D sky130_fd_sc_hd__a21oi_1
*I *227:A1 I *D sky130_fd_sc_hd__a31oi_1
*I *200:Y O *D sky130_fd_sc_hd__inv_2
*CAP
1 *232:A1 0
2 *227:A1 0
3 *200:Y 0.000122999
4 *30:14 0.000604415
5 *30:8 0.000727414
6 *30:8 *232:A2 5.02598e-05
7 *30:8 *53:10 0.00017761
8 *30:14 *49:10 7.03663e-05
9 *30:14 *93:14 0.000108679
10 *20:18 *30:14 0.000185803
*RES
1 *200:Y *30:8 25.5479 
2 *30:8 *30:14 38.5964 
3 *30:14 *227:A1 23 
4 *30:8 *232:A1 23 
*END

*D_NET *31 0.00553573
*CONN
*I *233:B1 I *D sky130_fd_sc_hd__o2bb2a_1
*I *201:Y O *D sky130_fd_sc_hd__inv_2
*CAP
1 *233:B1 0
2 *201:Y 0.000256594
3 *31:14 0.00154211
4 *31:8 0.0017987
5 *31:8 *262:A 8.06804e-06
6 *31:8 *81:18 0.000300203
7 *31:14 *233:A2_N 1.21972e-05
8 *31:14 *54:8 0.000226943
9 *31:14 *74:12 0.000370859
10 *31:14 *82:24 0.000388896
11 *31:14 *103:85 6.48142e-05
12 *31:14 *105:37 4.39488e-05
13 *31:14 *109:12 0.000256922
14 *263:A *31:14 0.000265472
*RES
1 *201:Y *31:8 41.9564 
2 *31:8 *31:14 39.4221 
3 *31:14 *233:B1 23 
*END

*D_NET *32 0.000360195
*CONN
*I *223:A1 I *D sky130_fd_sc_hd__a31oi_1
*I *202:Y O *D sky130_fd_sc_hd__inv_2
*CAP
1 *223:A1 8.3341e-05
2 *202:Y 8.3341e-05
3 *223:A1 *202:A 9.62764e-05
4 *223:A1 *223:A3 9.72368e-05
*RES
1 *202:Y *223:A1 48.0507 
*END

*D_NET *33 0.00638196
*CONN
*I *212:S I *D sky130_fd_sc_hd__mux2_1
*I *211:S I *D sky130_fd_sc_hd__mux2_1
*I *207:S I *D sky130_fd_sc_hd__mux2_1
*I *205:S I *D sky130_fd_sc_hd__mux2_1
*I *229:B1 I *D sky130_fd_sc_hd__o21a_1
*I *203:X O *D sky130_fd_sc_hd__mux4_2
*CAP
1 *212:S 1.91252e-05
2 *211:S 0
3 *207:S 0
4 *205:S 5.5367e-05
5 *229:B1 0.00011695
6 *203:X 0.000328413
7 *33:54 0.000170233
8 *33:39 0.000385122
9 *33:37 0.000441476
10 *33:29 0.000486401
11 *33:14 0.000578862
12 *33:10 0.000605003
13 *205:S *205:A0 0.000137651
14 *205:S *38:10 7.15126e-05
15 *212:S *230:B1 5.50106e-05
16 *212:S *87:12 5.3304e-05
17 *229:B1 *229:A1 1.24376e-05
18 *229:B1 *229:A2 1.21972e-05
19 *229:B1 *51:10 1.94812e-05
20 *33:10 *206:A_N 5.00861e-05
21 *33:10 *206:B 0.000311249
22 *33:10 *44:58 7.68979e-05
23 *33:10 *81:18 1.61361e-05
24 *33:10 *84:22 0.000211914
25 *33:14 *213:A1 4.67488e-05
26 *33:14 *229:A1 2.02872e-05
27 *33:14 *34:25 3.64394e-05
28 *33:14 *34:32 4.67488e-05
29 *33:29 *34:38 6.25829e-05
30 *33:29 *37:16 8.21763e-05
31 *33:29 *86:20 0.000241073
32 *33:37 *205:A0 0
33 *33:37 *35:8 9.75779e-05
34 *33:37 *37:16 0.000187996
35 *33:37 *41:10 0.000139352
36 *33:37 *66:21 0.000142687
37 *33:37 *75:10 1.41077e-05
38 *33:37 *86:20 0.000128761
39 *33:39 *205:A0 1.24376e-05
40 *33:39 *35:8 3.53115e-05
41 *33:39 *38:10 6.08617e-05
42 *33:54 *244:CLK 0.000219383
43 *33:54 *44:34 0.000406845
44 *33:54 *91:24 0.000185755
*RES
1 *203:X *33:10 44.4214 
2 *33:10 *33:14 18.9564 
3 *33:14 *229:B1 25.0714 
4 *33:14 *33:29 18.9357 
5 *33:29 *33:37 22.4157 
6 *33:37 *33:39 3.00357 
7 *33:39 *205:S 24.5743 
8 *33:39 *33:54 35.1371 
9 *33:54 *207:S 23 
10 *33:37 *211:S 23 
11 *33:29 *212:S 38.6214 
*END

*D_NET *34 0.00440726
*CONN
*I *206:A_N I *D sky130_fd_sc_hd__and2b_1
*I *229:A1 I *D sky130_fd_sc_hd__o21a_1
*I *210:A1 I *D sky130_fd_sc_hd__a21o_1
*I *213:S I *D sky130_fd_sc_hd__mux2_1
*I *230:A1 I *D sky130_fd_sc_hd__a21o_1
*I *204:X O *D sky130_fd_sc_hd__mux2_1
*CAP
1 *206:A_N 0.000341781
2 *229:A1 2.44264e-05
3 *210:A1 0
4 *213:S 0
5 *230:A1 0.000185344
6 *204:X 0
7 *34:38 7.66219e-05
8 *34:32 0.000149933
9 *34:25 0.000319211
10 *34:8 0.00048468
11 *34:6 0.000370791
12 *206:A_N *44:22 7.12679e-05
13 *206:A_N *81:18 6.41989e-05
14 *206:A_N *91:24 0.000112263
15 *206:A_N *108:14 0.000383925
16 *229:A1 *229:A2 2.18409e-05
17 *230:A1 *44:22 0.000194318
18 *230:A1 *44:34 3.70094e-05
19 *230:A1 *75:14 6.99589e-05
20 *230:A1 *108:14 0.00021673
21 *34:8 *44:22 0.00010803
22 *34:8 *108:14 0.000117244
23 *34:25 *209:A 2.18409e-05
24 *34:25 *213:A1 9.41704e-05
25 *34:25 *229:A2 1.24376e-05
26 *34:25 *38:25 0.000301116
27 *34:25 *43:10 8.06804e-06
28 *34:25 *103:43 0.000139352
29 *34:32 *229:A2 4.34973e-05
30 *34:38 *37:16 0.000162825
31 *34:38 *86:20 4.57952e-05
32 *229:B1 *229:A1 1.24376e-05
33 *33:10 *206:A_N 5.00861e-05
34 *33:14 *229:A1 2.02872e-05
35 *33:14 *34:25 3.64394e-05
36 *33:14 *34:32 4.67488e-05
37 *33:29 *34:38 6.25829e-05
*RES
1 *204:X *34:6 38 
2 *34:6 *34:8 1.55357 
3 *34:8 *230:A1 42.5364 
4 *34:8 *34:25 20.8829 
5 *34:25 *213:S 23 
6 *34:25 *34:32 1.09786 
7 *34:32 *34:38 32.2579 
8 *34:38 *210:A1 23 
9 *34:32 *229:A1 23.6214 
10 *34:6 *206:A_N 44.7736 
*END

*D_NET *35 0.00219819
*CONN
*I *206:B I *D sky130_fd_sc_hd__and2b_1
*I *205:X O *D sky130_fd_sc_hd__mux2_1
*CAP
1 *206:B 0.000359277
2 *205:X 0.000134729
3 *35:8 0.000494006
4 *206:B *36:10 0.000156319
5 *206:B *41:10 0.000109305
6 *206:B *42:8 0.000137788
7 *206:B *44:58 1.05984e-05
8 *206:B *75:10 0.000161121
9 *206:B *84:22 0.000108181
10 *206:B *85:16 8.27306e-05
11 *33:10 *206:B 0.000311249
12 *33:37 *35:8 9.75779e-05
13 *33:39 *35:8 3.53115e-05
*RES
1 *205:X *35:8 40.0507 
2 *35:8 *206:B 48.005 
*END

*D_NET *36 0.000619929
*CONN
*I *214:A1 I *D sky130_fd_sc_hd__o22a_1
*I *206:X O *D sky130_fd_sc_hd__and2b_1
*CAP
1 *214:A1 0
2 *206:X 0.000141464
3 *36:10 0.000141464
4 *36:10 *85:16 0.00015422
5 *36:10 *101:33 2.64616e-05
6 *206:B *36:10 0.000156319
*RES
1 *206:X *36:10 40.8793 
2 *36:10 *214:A1 38 
*END

*D_NET *37 0.00345219
*CONN
*I *210:A2 I *D sky130_fd_sc_hd__a21o_1
*I *207:X O *D sky130_fd_sc_hd__mux2_1
*CAP
1 *210:A2 0
2 *207:X 0.000410188
3 *37:16 0.000502208
4 *37:10 0.000912397
5 *37:10 *207:A0 0.000137651
6 *37:10 *244:D 0.000147908
7 *37:10 *65:16 0.000127821
8 *37:10 *88:8 7.45797e-06
9 *37:16 *38:31 0.000267048
10 *37:16 *41:10 2.09183e-05
11 *37:16 *84:16 0.000202179
12 *37:16 *85:16 5.97612e-05
13 *37:16 *86:20 0.000169513
14 *19:15 *37:16 5.41385e-05
15 *33:29 *37:16 8.21763e-05
16 *33:37 *37:16 0.000187996
17 *34:38 *37:16 0.000162825
*RES
1 *207:X *37:10 44.0071 
2 *37:10 *37:16 28.2157 
3 *37:16 *210:A2 23 
*END

*D_NET *38 0.00489098
*CONN
*I *209:A I *D sky130_fd_sc_hd__inv_2
*I *229:A2 I *D sky130_fd_sc_hd__o21a_1
*I *210:B1 I *D sky130_fd_sc_hd__a21o_1
*I *230:A2 I *D sky130_fd_sc_hd__a21o_1
*I *208:X O *D sky130_fd_sc_hd__mux2_1
*CAP
1 *209:A 0.000111025
2 *229:A2 0.000155947
3 *210:B1 0
4 *230:A2 0
5 *208:X 0.000681616
6 *38:31 0.00014355
7 *38:25 0.00056438
8 *38:21 0.000535739
9 *38:10 0.000841447
10 *209:A *39:10 2.93747e-05
11 *209:A *43:10 6.17437e-06
12 *209:A *84:22 8.72173e-05
13 *209:A *103:43 0.000131562
14 *209:A *108:14 1.17049e-05
15 *38:10 *205:A0 3.49466e-05
16 *38:10 *65:29 0
17 *38:10 *75:10 0
18 *38:10 *83:12 5.85822e-06
19 *38:10 *84:22 1.69668e-05
20 *38:10 *108:14 0.000274562
21 *38:21 *84:22 0.000163352
22 *38:21 *103:43 0
23 *38:21 *108:14 4.73689e-05
24 *38:31 *85:16 0.000205968
25 *205:S *38:10 7.15126e-05
26 *229:A1 *229:A2 2.18409e-05
27 *229:B1 *229:A2 1.21972e-05
28 *272:A *38:10 2.98648e-05
29 *33:39 *38:10 6.08617e-05
30 *34:25 *209:A 2.18409e-05
31 *34:25 *229:A2 1.24376e-05
32 *34:25 *38:25 0.000301116
33 *34:32 *229:A2 4.34973e-05
34 *37:16 *38:31 0.000267048
*RES
1 *208:X *38:10 48.005 
2 *38:10 *230:A2 38 
3 *38:10 *38:21 3.35571 
4 *38:21 *38:25 18.48 
5 *38:25 *38:31 33.6664 
6 *38:31 *210:B1 23 
7 *38:25 *229:A2 25.0507 
8 *38:21 *209:A 40.7757 
*END

*D_NET *39 0.000699122
*CONN
*I *214:B2 I *D sky130_fd_sc_hd__o22a_1
*I *209:Y O *D sky130_fd_sc_hd__inv_2
*CAP
1 *214:B2 0.000109407
2 *209:Y 0.000105687
3 *39:10 0.000215095
4 *214:B2 *44:20 6.17437e-06
5 *214:B2 *44:58 1.61361e-05
6 *39:10 *43:10 0.000107508
7 *39:10 *103:43 0.000109739
8 *209:A *39:10 2.93747e-05
*RES
1 *209:Y *39:10 40.175 
2 *39:10 *214:B2 39.595 
*END

*D_NET *40 0.000167508
*CONN
*I *214:A2 I *D sky130_fd_sc_hd__o22a_1
*I *210:X O *D sky130_fd_sc_hd__a21o_1
*CAP
1 *214:A2 8.37538e-05
2 *210:X 8.37538e-05
*RES
1 *210:X *214:A2 47.0979 
*END

*D_NET *41 0.00129892
*CONN
*I *213:A0 I *D sky130_fd_sc_hd__mux2_1
*I *211:X O *D sky130_fd_sc_hd__mux2_1
*CAP
1 *213:A0 0
2 *211:X 0.000298559
3 *41:10 0.000298559
4 *41:10 *42:8 0.000135547
5 *41:10 *84:16 8.4047e-05
6 *41:10 *85:16 0.00021263
7 *206:B *41:10 0.000109305
8 *33:37 *41:10 0.000139352
9 *37:16 *41:10 2.09183e-05
*RES
1 *211:X *41:10 44.6493 
2 *41:10 *213:A0 38 
*END

*D_NET *42 0.000637075
*CONN
*I *213:A1 I *D sky130_fd_sc_hd__mux2_1
*I *212:X O *D sky130_fd_sc_hd__mux2_1
*CAP
1 *213:A1 4.89752e-05
2 *212:X 6.24349e-05
3 *42:8 0.00011141
4 *206:B *42:8 0.000137788
5 *33:14 *213:A1 4.67488e-05
6 *34:25 *213:A1 9.41704e-05
7 *41:10 *42:8 0.000135547
*RES
1 *212:X *42:8 39.9057 
2 *42:8 *213:A1 39.0979 
*END

*D_NET *43 0.000517839
*CONN
*I *214:B1 I *D sky130_fd_sc_hd__o22a_1
*I *213:X O *D sky130_fd_sc_hd__mux2_1
*CAP
1 *214:B1 0
2 *213:X 0.000123474
3 *43:10 0.000123474
4 *43:10 *84:22 0.000134383
5 *43:10 *103:43 1.47563e-05
6 *209:A *43:10 6.17437e-06
7 *34:25 *43:10 8.06804e-06
8 *39:10 *43:10 0.000107508
*RES
1 *213:X *43:10 40.5271 
2 *43:10 *214:B1 38 
*END

*D_NET *44 0.0118424
*CONN
*I *225:A0 I *D sky130_fd_sc_hd__mux4_1
*I *231:B I *D sky130_fd_sc_hd__nand2_1
*I *219:A0 I *D sky130_fd_sc_hd__mux2_1
*I *217:A0 I *D sky130_fd_sc_hd__mux2_1
*I *221:A0 I *D sky130_fd_sc_hd__mux4_1
*I *215:A0 I *D sky130_fd_sc_hd__mux2_1
*I *216:A0 I *D sky130_fd_sc_hd__mux2_1
*I *214:X O *D sky130_fd_sc_hd__o22a_1
*CAP
1 *225:A0 0.000128716
2 *231:B 0.000455999
3 *219:A0 0
4 *217:A0 0
5 *221:A0 0
6 *215:A0 7.88962e-05
7 *216:A0 0
8 *214:X 4.63305e-05
9 *44:93 0.000620809
10 *44:83 0.00071235
11 *44:77 0.000802832
12 *44:69 0.000658947
13 *44:58 0.000660698
14 *44:34 0.00059124
15 *44:22 0.00080268
16 *44:20 0.000388266
17 *44:6 0.000687811
18 *215:A0 *75:14 0.000137651
19 *225:A0 *225:A2 2.28212e-05
20 *225:A0 *69:14 6.08617e-05
21 *231:B *79:14 0
22 *231:B *79:27 0.000318025
23 *231:B *91:10 4.08376e-06
24 *231:B *100:14 0.000231221
25 *231:B *100:18 0.000164282
26 *231:B *100:59 0.000159168
27 *231:B *100:61 6.07826e-05
28 *231:B *104:60 1.37349e-05
29 *44:20 *84:22 5.01686e-05
30 *44:20 *103:43 5.72853e-05
31 *44:22 *91:24 0.000365572
32 *44:34 *207:A0 0.000183733
33 *44:34 *244:CLK 7.27986e-05
34 *44:34 *64:22 2.02872e-05
35 *44:34 *88:8 1.21972e-05
36 *44:34 *91:24 0.000138815
37 *44:34 *108:14 0.000349687
38 *44:58 *84:22 0.000199229
39 *44:58 *84:33 4.77164e-06
40 *44:58 *85:16 2.75733e-06
41 *44:58 *101:33 8.71709e-05
42 *44:69 *69:22 5.50184e-05
43 *44:69 *70:12 0.000259666
44 *44:69 *84:33 8.25449e-05
45 *44:69 *85:26 0
46 *44:69 *101:33 4.07126e-05
47 *44:69 *104:52 2.17749e-05
48 *44:77 *46:10 9.47227e-05
49 *44:77 *69:14 9.67842e-05
50 *44:77 *83:37 0.000148618
51 *44:77 *108:22 6.17437e-06
52 *44:83 *79:27 3.70094e-05
53 *44:83 *83:37 5.3304e-05
54 *44:83 *91:24 3.47879e-05
55 *44:83 *100:61 2.84912e-05
56 *44:83 *108:22 5.94125e-05
57 *44:93 *218:S 0.000136738
58 *44:93 *249:CLK 0.000101436
59 *44:93 *83:37 0.00021677
60 *44:93 *101:98 8.85189e-05
61 *206:A_N *44:22 7.12679e-05
62 *206:B *44:58 1.05984e-05
63 *214:B2 *44:20 6.17437e-06
64 *214:B2 *44:58 1.61361e-05
65 *230:A1 *44:22 0.000194318
66 *230:A1 *44:34 3.70094e-05
67 *33:10 *44:58 7.68979e-05
68 *33:54 *44:34 0.000406845
69 *34:8 *44:22 0.00010803
*RES
1 *214:X *44:6 23.6214 
2 *44:6 *44:20 49.2464 
3 *44:20 *44:22 5.075 
4 *44:22 *44:34 28.0293 
5 *44:34 *216:A0 23 
6 *44:22 *215:A0 39.5743 
7 *44:6 *44:58 21.5871 
8 *44:58 *221:A0 38 
9 *44:58 *44:69 20.7793 
10 *44:69 *44:77 20.4271 
11 *44:77 *44:83 17.175 
12 *44:83 *44:93 37.685 
13 *44:93 *217:A0 23 
14 *44:83 *219:A0 23 
15 *44:77 *231:B 49.4757 
16 *44:69 *225:A0 25.5479 
*END

*D_NET *45 0.00114021
*CONN
*I *224:A1 I *D sky130_fd_sc_hd__mux2_1
*I *221:X O *D sky130_fd_sc_hd__mux4_1
*CAP
1 *224:A1 2.21631e-05
2 *221:X 0.000353422
3 *45:8 0.000375585
4 *224:A1 *224:A0 2.93845e-05
5 *224:A1 *224:S 5.3304e-05
6 *45:8 *224:S 0.000227501
7 *45:8 *256:D 7.05435e-05
8 *45:8 *81:18 8.30566e-06
*RES
1 *221:X *45:8 42.7229 
2 *45:8 *224:A1 38.6214 
*END

*D_NET *46 0.00158634
*CONN
*I *223:B1 I *D sky130_fd_sc_hd__a31oi_1
*I *222:Y O *D sky130_fd_sc_hd__a21oi_1
*CAP
1 *223:B1 0
2 *222:Y 0.000368669
3 *46:10 0.000368669
4 *46:10 *223:A2 6.23461e-05
5 *46:10 *69:33 0.000198952
6 *46:10 *82:34 8.1266e-05
7 *46:10 *84:49 4.82774e-05
8 *46:10 *91:24 0.000271853
9 *46:10 *103:64 8.42746e-05
10 *46:10 *104:52 7.31043e-06
11 *44:77 *46:10 9.47227e-05
*RES
1 *222:Y *46:10 46.5343 
2 *46:10 *223:B1 38 
*END

*D_NET *47 0.00337991
*CONN
*I *224:A0 I *D sky130_fd_sc_hd__mux2_1
*I *223:Y O *D sky130_fd_sc_hd__a31oi_1
*CAP
1 *224:A0 0.000528057
2 *223:Y 0.000678129
3 *47:8 0.00120619
4 *224:A0 *224:S 1.21972e-05
5 *224:A0 *82:24 0.000166944
6 *224:A0 *86:20 0.000350887
7 *224:A0 *101:45 6.42799e-05
8 *224:A0 *107:14 1.24376e-05
9 *47:8 *221:A2 1.6318e-05
10 *47:8 *221:S1 5.08632e-05
11 *47:8 *223:A2 9.92345e-05
12 *47:8 *223:A3 0.000130544
13 *224:A1 *224:A0 2.93845e-05
14 *19:15 *224:A0 3.44446e-05
*RES
1 *223:Y *47:8 46.2443 
2 *47:8 *224:A0 47.5286 
*END

*D_NET *48 0.00154931
*CONN
*I *228:A1 I *D sky130_fd_sc_hd__mux2_1
*I *225:X O *D sky130_fd_sc_hd__mux4_1
*CAP
1 *228:A1 0.000131791
2 *225:X 0.000414666
3 *48:10 0.000546457
4 *228:A1 *74:29 5.3304e-05
5 *48:10 *227:A3 2.81066e-05
6 *48:10 *256:D 0.000248371
7 *15:11 *228:A1 6.08617e-05
8 *15:11 *48:10 6.57551e-05
*RES
1 *225:X *48:10 44.1729 
2 *48:10 *228:A1 40.0507 
*END

*D_NET *49 0.0010037
*CONN
*I *227:B1 I *D sky130_fd_sc_hd__a31oi_1
*I *226:Y O *D sky130_fd_sc_hd__a21oi_1
*CAP
1 *227:B1 0
2 *226:Y 0.000319646
3 *49:10 0.000319646
4 *49:10 *72:10 1.01436e-05
5 *49:10 *93:14 0.000169665
6 *49:10 *94:22 0.000110533
7 *20:18 *49:10 3.70071e-06
8 *30:14 *49:10 7.03663e-05
*RES
1 *226:Y *49:10 43.2614 
2 *49:10 *227:B1 38 
*END

*D_NET *50 0.00108959
*CONN
*I *228:A0 I *D sky130_fd_sc_hd__mux2_1
*I *227:Y O *D sky130_fd_sc_hd__a31oi_1
*CAP
1 *228:A0 0
2 *227:Y 0.000422999
3 *50:10 0.000422999
4 *50:10 *72:10 8.4047e-05
5 *50:10 *72:14 2.64616e-05
6 *50:10 *93:14 5.56892e-05
7 horz_bus_out[3] *50:10 1.72918e-05
8 *15:19 *50:10 6.01055e-05
*RES
1 *227:Y *50:10 43.6964 
2 *50:10 *228:A0 38 
*END

*D_NET *51 0.00177774
*CONN
*I *230:B1 I *D sky130_fd_sc_hd__a21o_1
*I *229:X O *D sky130_fd_sc_hd__o21a_1
*CAP
1 *230:B1 0.000202607
2 *229:X 0.000191917
3 *51:10 0.000394524
4 *230:B1 *212:A0 0.000180224
5 *230:B1 *75:14 5.3304e-05
6 *230:B1 *84:16 0.000112087
7 *230:B1 *85:16 0.000139357
8 *230:B1 *87:12 0.000116949
9 *51:10 *82:24 3.04021e-05
10 *51:10 *86:20 0.000164291
11 *51:10 *87:12 6.25829e-05
12 *51:10 *101:45 5.50049e-05
13 *212:S *230:B1 5.50106e-05
14 *229:B1 *51:10 1.94812e-05
*RES
1 *229:X *51:10 41.8321 
2 *51:10 *230:B1 43.3857 
*END

*D_NET *52 0.00038616
*CONN
*I *233:A1_N I *D sky130_fd_sc_hd__o2bb2a_1
*I *231:Y O *D sky130_fd_sc_hd__nand2_1
*CAP
1 *233:A1_N 0.000189993
2 *231:Y 0.000189993
3 *233:A1_N *100:14 6.17437e-06
*RES
1 *231:Y *233:A1_N 48.8638 
*END

*D_NET *53 0.00286377
*CONN
*I *233:A2_N I *D sky130_fd_sc_hd__o2bb2a_1
*I *232:Y O *D sky130_fd_sc_hd__a21oi_1
*CAP
1 *233:A2_N 0.000387543
2 *232:Y 0.000735411
3 *53:10 0.00112295
4 *233:A2_N *105:37 5.50049e-05
5 *53:10 *200:A 0.000273324
6 *53:10 *232:A2 7.43025e-06
7 *53:10 *85:26 2.54046e-05
8 *263:A *233:A2_N 6.68919e-05
9 *30:8 *53:10 0.00017761
10 *31:14 *233:A2_N 1.21972e-05
*RES
1 *232:Y *53:10 47.8859 
2 *53:10 *233:A2_N 42.9093 
*END

*D_NET *54 0.0028839
*CONN
*I *265:A I *D sky130_fd_sc_hd__clkbuf_16
*I *264:A I *D sky130_fd_sc_hd__clkbuf_16
*I *263:X O *D sky130_fd_sc_hd__clkbuf_16
*CAP
1 *265:A 7.97462e-05
2 *264:A 0.0001389
3 *263:X 0.000604051
4 *54:8 0.000822697
5 *264:A *200:A 6.18328e-05
6 *264:A *260:A 2.30292e-05
7 *264:A *56:10 0.000241355
8 *264:A *94:10 9.48318e-05
9 *264:A *94:22 0.000163352
10 *265:A *56:10 8.62876e-05
11 *265:A *85:26 4.07715e-05
12 *265:A *94:10 0.000102638
13 *54:8 *105:37 1.46455e-05
14 *234:D *264:A 0.00018282
15 *31:14 *54:8 0.000226943
*RES
1 *263:X *54:8 45.2914 
2 *54:8 *264:A 43.365 
3 *54:8 *265:A 40.2579 
*END

*D_NET *55 0.0028673
*CONN
*I *260:A I *D sky130_fd_sc_hd__buf_2
*I *266:A I *D sky130_fd_sc_hd__clkbuf_4
*I *264:X O *D sky130_fd_sc_hd__clkbuf_16
*CAP
1 *260:A 0.000279567
2 *266:A 0
3 *264:X 0
4 *55:12 0.000459421
5 *55:4 0.000738987
6 *260:A *200:A 0.000181098
7 *260:A *82:34 0
8 *260:A *98:10 0.000517593
9 *260:A *100:59 0.000181125
10 *260:A *104:60 0.000135037
11 *55:12 *79:6 0.000175872
12 *55:12 *79:14 6.03737e-05
13 *55:12 *80:20 9.26527e-05
14 *234:D *260:A 2.25419e-05
15 *264:A *260:A 2.30292e-05
*RES
1 *264:X *55:4 23 
2 *55:4 *55:12 37.5193 
3 *55:12 *266:A 23 
4 *55:4 *260:A 31.1407 
*END

*D_NET *56 0.00225877
*CONN
*I *234:CLK I *D sky130_fd_sc_hd__dfxtp_1
*I *265:X O *D sky130_fd_sc_hd__clkbuf_16
*CAP
1 *234:CLK 0
2 *265:X 0.000681543
3 *56:10 0.000681543
4 *56:10 *85:26 0.000482805
5 *56:10 *94:22 1.37246e-05
6 *56:10 *105:47 7.15126e-05
7 *264:A *56:10 0.000241355
8 *265:A *56:10 8.62876e-05
*RES
1 *265:X *56:10 49.0614 
2 *56:10 *234:CLK 38 
*END

*D_NET *57 0.00477899
*CONN
*I *236:D I *D sky130_fd_sc_hd__dfxtp_1
*I *208:S I *D sky130_fd_sc_hd__mux2_1
*I *235:Q O *D sky130_fd_sc_hd__dfxtp_1
*CAP
1 *236:D 6.70457e-05
2 *208:S 0
3 *235:Q 9.82853e-05
4 *57:26 0.000433839
5 *57:14 0.00123288
6 *57:8 0.000830281
7 *236:D *236:CLK 0.000114425
8 *57:14 *236:CLK 1.24376e-05
9 *57:14 *76:29 0.000975538
10 *57:26 *76:18 0.000295601
11 *57:26 *76:29 0.000195238
12 *57:26 *103:18 0.000274007
13 vert_bus_out[0] *57:14 9.38027e-05
14 *9:21 *57:26 0.000120658
15 *17:17 *57:26 3.49484e-05
*RES
1 *235:Q *57:8 39.0979 
2 *57:8 *57:14 31.7371 
3 *57:14 *57:26 40.73 
4 *57:26 *208:S 23 
5 *57:14 *236:D 24.4137 
*END

*D_NET *58 0.00197396
*CONN
*I *237:D I *D sky130_fd_sc_hd__dfxtp_1
*I *204:S I *D sky130_fd_sc_hd__mux2_1
*I *236:Q O *D sky130_fd_sc_hd__dfxtp_1
*CAP
1 *237:D 0
2 *204:S 0.0001073
3 *236:Q 0
4 *58:21 0.000535395
5 *58:4 0.000642695
6 *204:S *103:26 5.65874e-05
7 *58:21 *237:CLK 8.04002e-05
8 *58:21 *238:D 0.000235604
9 *58:21 *59:10 0.000196746
10 *58:21 *83:12 8.85189e-05
11 *58:21 *83:18 3.07104e-05
*RES
1 *236:Q *58:4 23 
2 *58:4 *204:S 25.2993 
3 *58:4 *58:21 38.1252 
4 *58:21 *237:D 23 
*END

*D_NET *59 0.0031154
*CONN
*I *203:S1 I *D sky130_fd_sc_hd__mux4_2
*I *238:D I *D sky130_fd_sc_hd__dfxtp_1
*I *237:Q O *D sky130_fd_sc_hd__dfxtp_1
*CAP
1 *203:S1 0
2 *238:D 0.000352766
3 *237:Q 0.000763066
4 *59:10 0.00111583
5 *238:D *83:18 0.000235604
6 *59:10 *237:CLK 8.79848e-05
7 *59:10 *83:18 0.000127791
8 *58:21 *238:D 0.000235604
9 *58:21 *59:10 0.000196746
*RES
1 *237:Q *59:10 47.1971 
2 *59:10 *238:D 44.3645 
3 *59:10 *203:S1 38 
*END

*D_NET *60 0.00400085
*CONN
*I *203:S0 I *D sky130_fd_sc_hd__mux4_2
*I *239:D I *D sky130_fd_sc_hd__dfxtp_1
*I *238:Q O *D sky130_fd_sc_hd__dfxtp_1
*CAP
1 *203:S0 9.95799e-05
2 *239:D 4.98167e-05
3 *238:Q 5.39135e-05
4 *60:18 0.000936987
5 *60:8 0.00104066
6 *203:S0 *91:24 0.000155677
7 *203:S0 *107:26 3.52472e-05
8 *239:D *61:8 8.04002e-05
9 *60:18 *248:D 0.000139352
10 *60:18 *75:14 0.000141052
11 *60:18 *83:12 0.000179026
12 *60:18 *91:24 0.000427856
13 *60:18 *99:39 0.000209992
14 *60:18 *99:41 0.000217489
15 *60:18 *102:33 0.000194327
16 *60:18 *107:26 3.94693e-05
*RES
1 *238:Q *60:8 38.6214 
2 *60:8 *60:18 47.3793 
3 *60:18 *239:D 38.9373 
4 *60:8 *203:S0 17.2579 
*END

*D_NET *61 0.00457033
*CONN
*I *205:A0 I *D sky130_fd_sc_hd__mux2_1
*I *240:D I *D sky130_fd_sc_hd__dfxtp_1
*I *239:Q O *D sky130_fd_sc_hd__dfxtp_1
*CAP
1 *205:A0 0.000317945
2 *240:D 0.000332846
3 *239:Q 0.00074524
4 *61:8 0.00139603
5 *205:A0 *205:A1 9.67842e-05
6 *205:A0 *99:39 7.81176e-05
7 *205:A0 *99:41 8.92841e-05
8 *240:D *240:CLK 0.000266204
9 *240:D *242:CLK 9.84851e-05
10 *240:D *99:41 3.90766e-05
11 *240:D *99:45 0.00011218
12 *61:8 *243:CLK 2.93747e-05
13 *61:8 *99:76 1.41077e-05
14 *205:S *205:A0 0.000137651
15 *239:D *61:8 8.04002e-05
16 *272:A *205:A0 0.000390297
17 *272:A *240:D 0.000298925
18 *33:37 *205:A0 0
19 *33:39 *205:A0 1.24376e-05
20 *38:10 *205:A0 3.49466e-05
*RES
1 *239:Q *61:8 46.2443 
2 *61:8 *240:D 46.0216 
3 *61:8 *205:A0 46.3893 
*END

*D_NET *62 0.00194815
*CONN
*I *205:A1 I *D sky130_fd_sc_hd__mux2_1
*I *241:D I *D sky130_fd_sc_hd__dfxtp_1
*I *240:Q O *D sky130_fd_sc_hd__dfxtp_1
*CAP
1 *205:A1 0.00028187
2 *241:D 1.26271e-05
3 *240:Q 0.000186303
4 *62:10 0.0004808
5 *205:A1 *64:22 0.000110379
6 *205:A1 *91:24 0.000126261
7 *241:D *243:CLK 1.64354e-05
8 *62:10 *242:CLK 3.06338e-05
9 *62:10 *64:22 9.28078e-06
10 *62:10 *91:24 0
11 *62:10 *108:14 0
12 *205:A0 *205:A1 9.67842e-05
13 *272:A *205:A1 0.000403946
14 *272:A *62:10 0.000192833
*RES
1 *240:Q *62:10 41.7079 
2 *62:10 *241:D 38.1916 
3 *62:10 *205:A1 44.8771 
*END

*D_NET *63 0.00210711
*CONN
*I *207:A0 I *D sky130_fd_sc_hd__mux2_1
*I *242:D I *D sky130_fd_sc_hd__dfxtp_1
*I *241:Q O *D sky130_fd_sc_hd__dfxtp_1
*CAP
1 *207:A0 0.000225605
2 *242:D 0.000249953
3 *241:Q 0.000150122
4 *63:8 0.000625679
5 *207:A0 *244:CLK 2.79662e-05
6 *207:A0 *64:22 5.3304e-05
7 *207:A0 *88:8 9.88574e-06
8 *207:A0 *108:14 4.60263e-05
9 *242:D *84:16 0
10 *242:D *108:14 0.000142535
11 *63:8 *64:22 0.000228909
12 *273:A *242:D 2.57449e-05
13 *37:10 *207:A0 0.000137651
14 *44:34 *207:A0 0.000183733
*RES
1 *241:Q *63:8 40.5271 
2 *63:8 *242:D 43.0129 
3 *63:8 *207:A0 43.0336 
*END

*D_NET *64 0.00276935
*CONN
*I *243:D I *D sky130_fd_sc_hd__dfxtp_1
*I *207:A1 I *D sky130_fd_sc_hd__mux2_1
*I *242:Q O *D sky130_fd_sc_hd__dfxtp_1
*CAP
1 *243:D 0
2 *207:A1 0
3 *242:Q 0.000122052
4 *64:22 0.000435825
5 *64:12 0.000596969
6 *64:8 0.000283195
7 *64:8 *87:20 0.000191148
8 *64:12 *91:34 3.51008e-05
9 *64:22 *243:CLK 0.000527112
10 *64:22 *91:24 3.14315e-05
11 *64:22 *91:34 3.01878e-05
12 *205:A1 *64:22 0.000110379
13 *207:A0 *64:22 5.3304e-05
14 *22:21 *64:12 9.41704e-05
15 *44:34 *64:22 2.02872e-05
16 *62:10 *64:22 9.28078e-06
17 *63:8 *64:22 0.000228909
*RES
1 *242:Q *64:8 40.61 
2 *64:8 *64:12 17.6877 
3 *64:12 *64:22 39.7823 
4 *64:22 *207:A1 23 
5 *64:12 *243:D 23 
*END

*D_NET *65 0.00280514
*CONN
*I *211:A0 I *D sky130_fd_sc_hd__mux2_1
*I *244:D I *D sky130_fd_sc_hd__dfxtp_1
*I *243:Q O *D sky130_fd_sc_hd__dfxtp_1
*CAP
1 *211:A0 0
2 *244:D 3.36902e-05
3 *243:Q 0.000201857
4 *65:29 0.000163776
5 *65:16 0.00075912
6 *65:8 0.000763511
7 *244:D *88:8 4.18201e-05
8 *65:8 *81:18 3.83778e-05
9 *65:16 *245:D 0.000302812
10 *65:16 *88:8 5.76642e-05
11 *65:29 *75:10 3.3123e-05
12 *65:29 *84:16 0.000133656
13 *65:29 *108:14 0
14 *37:10 *244:D 0.000147908
15 *37:10 *65:16 0.000127821
16 *38:10 *65:29 0
*RES
1 *243:Q *65:8 40.61 
2 *65:8 *65:16 23.41 
3 *65:16 *244:D 24.6209 
4 *65:16 *65:29 33.6664 
5 *65:29 *211:A0 23 
*END

*D_NET *66 0.00270279
*CONN
*I *211:A1 I *D sky130_fd_sc_hd__mux2_1
*I *245:D I *D sky130_fd_sc_hd__dfxtp_1
*I *244:Q O *D sky130_fd_sc_hd__dfxtp_1
*CAP
1 *211:A1 0
2 *245:D 0.000422715
3 *244:Q 0
4 *66:21 0.000277731
5 *66:4 0.000700446
6 *245:D *245:CLK 0.000265943
7 *66:21 *285:A 4.67488e-05
8 *66:21 *67:8 0.000138718
9 *66:21 *75:10 0.000266271
10 *66:21 *87:20 0.000138718
11 *33:37 *66:21 0.000142687
12 *65:16 *245:D 0.000302812
*RES
1 *244:Q *66:4 23 
2 *66:4 *245:D 30.9387 
3 *66:4 *66:21 36.815 
4 *66:21 *211:A1 23 
*END

*D_NET *67 0.00171287
*CONN
*I *246:D I *D sky130_fd_sc_hd__dfxtp_1
*I *212:A0 I *D sky130_fd_sc_hd__mux2_1
*I *245:Q O *D sky130_fd_sc_hd__dfxtp_1
*CAP
1 *246:D 3.23842e-05
2 *212:A0 0.000103189
3 *245:Q 0.000122279
4 *67:10 0.000135574
5 *67:8 0.000122279
6 *212:A0 *212:A1 0.000221997
7 *212:A0 *246:CLK 5.3304e-05
8 *212:A0 *87:12 1.03836e-05
9 *246:D *212:A1 6.79626e-05
10 *246:D *246:CLK 8.04002e-05
11 *67:8 *82:24 0.000323803
12 *67:8 *87:12 5.72389e-05
13 *67:8 *87:20 6.31372e-05
14 *230:B1 *212:A0 0.000180224
15 *66:21 *67:8 0.000138718
*RES
1 *245:Q *67:8 42.3707 
2 *67:8 *67:10 15 
3 *67:10 *212:A0 26.0036 
4 *67:10 *246:D 23.9373 
*END

*D_NET *68 0.00233583
*CONN
*I *247:D I *D sky130_fd_sc_hd__dfxtp_1
*I *212:A1 I *D sky130_fd_sc_hd__mux2_1
*I *246:Q O *D sky130_fd_sc_hd__dfxtp_1
*CAP
1 *247:D 0
2 *212:A1 0.00047278
3 *246:Q 0.000321678
4 *68:21 5.70569e-05
5 *68:6 0.000851515
6 *212:A1 *246:CLK 8.79848e-05
7 *68:21 *245:CLK 1.14452e-05
8 *68:21 *247:CLK 1.74843e-05
9 *68:21 *81:18 0.000111852
10 *68:21 *101:51 0.000114074
11 *212:A0 *212:A1 0.000221997
12 *246:D *212:A1 6.79626e-05
*RES
1 *246:Q *68:6 26.48 
2 *68:6 *212:A1 28.8621 
3 *68:6 *68:21 31.7452 
4 *68:21 *247:D 23 
*END

*D_NET *69 0.0064383
*CONN
*I *222:B1 I *D sky130_fd_sc_hd__a21oi_1
*I *221:S1 I *D sky130_fd_sc_hd__mux4_1
*I *223:A2 I *D sky130_fd_sc_hd__a31oi_1
*I *254:D I *D sky130_fd_sc_hd__dfxtp_1
*I *253:Q O *D sky130_fd_sc_hd__dfxtp_1
*CAP
1 *222:B1 0
2 *221:S1 0.000324596
3 *223:A2 0.000132775
4 *254:D 4.95973e-05
5 *253:Q 0.000458841
6 *69:33 0.000572374
7 *69:22 0.000296266
8 *69:14 0.00022241
9 *69:10 0.000549585
10 *221:S1 *221:A2 3.28708e-05
11 *221:S1 *223:A3 0.000428943
12 *221:S1 *103:45 5.3304e-05
13 *221:S1 *103:79 0.00046447
14 *223:A2 *223:A3 0.000140078
15 *223:A2 *103:43 8.34806e-05
16 *223:A2 *103:64 8.30566e-06
17 *254:D *256:CLK 0.000141648
18 *254:D *109:45 0.000140991
19 *69:10 *258:CLK 0.000349818
20 *69:10 *85:26 0.000366502
21 *69:10 *94:22 0.000218416
22 *69:10 *104:52 0
23 *69:10 *109:71 3.70187e-05
24 *69:14 *225:A2 0.000136743
25 *69:14 *83:37 9.67842e-05
26 *69:22 *256:CLK 0.00012692
27 *69:22 *104:52 0.00013139
28 *69:22 *109:45 0.000137651
29 *69:33 *103:43 3.33082e-05
30 *69:33 *104:52 7.91574e-05
31 *225:A0 *69:14 6.08617e-05
32 *44:69 *69:22 5.50184e-05
33 *44:77 *69:14 9.67842e-05
34 *46:10 *223:A2 6.23461e-05
35 *46:10 *69:33 0.000198952
36 *47:8 *221:S1 5.08632e-05
37 *47:8 *223:A2 9.92345e-05
*RES
1 *253:Q *69:10 47.3836 
2 *69:10 *69:14 17.5271 
3 *69:14 *69:22 33.48 
4 *69:22 *254:D 24.6209 
5 *69:22 *69:33 17.9621 
6 *69:33 *223:A2 41.2521 
7 *69:33 *221:S1 46.41 
8 *69:14 *222:B1 23 
*END

*D_NET *70 0.00377837
*CONN
*I *221:S0 I *D sky130_fd_sc_hd__mux4_1
*I *223:A3 I *D sky130_fd_sc_hd__a31oi_1
*I *255:D I *D sky130_fd_sc_hd__dfxtp_1
*I *222:A2 I *D sky130_fd_sc_hd__a21oi_1
*I *254:Q O *D sky130_fd_sc_hd__dfxtp_1
*CAP
1 *221:S0 0
2 *223:A3 0.000319783
3 *255:D 0.000139094
4 *222:A2 0
5 *254:Q 0
6 *70:36 0.000319783
7 *70:23 0.000256725
8 *70:12 0.000255739
9 *70:4 0.00037337
10 *223:A3 *202:A 1.46594e-05
11 *223:A3 *103:45 3.44001e-05
12 *255:D *81:18 8.29289e-05
13 *255:D *85:26 0.000176098
14 *255:D *104:41 8.1228e-05
15 *70:12 *256:CLK 5.12328e-05
16 *70:12 *85:26 3.63713e-05
17 *70:12 *109:71 0.000131997
18 *70:23 *256:CLK 1.59094e-05
19 *70:23 *85:26 0.000123172
20 *221:S1 *223:A3 0.000428943
21 *223:A1 *223:A3 9.72368e-05
22 *223:A2 *223:A3 0.000140078
23 *19:15 *255:D 0.000176098
24 *19:15 *70:23 0.000133316
25 *44:69 *70:12 0.000259666
26 *47:8 *223:A3 0.000130544
*RES
1 *254:Q *70:4 23 
2 *70:4 *70:12 35.2407 
3 *70:12 *222:A2 23 
4 *70:4 *70:23 17.5271 
5 *70:23 *255:D 41.5473 
6 *70:23 *70:36 15 
7 *70:36 *223:A3 30.9336 
8 *70:36 *221:S0 23 
*END

*D_NET *71 0.00270549
*CONN
*I *256:D I *D sky130_fd_sc_hd__dfxtp_1
*I *224:S I *D sky130_fd_sc_hd__mux2_1
*I *255:Q O *D sky130_fd_sc_hd__dfxtp_1
*CAP
1 *256:D 0.000556788
2 *224:S 0.000289384
3 *255:Q 0
4 *71:6 0.000846172
5 *224:S *81:18 0.000177536
6 *256:D *109:31 2.84462e-05
7 *224:A0 *224:S 1.21972e-05
8 *224:A1 *224:S 5.3304e-05
9 *15:11 *256:D 0.000195248
10 *45:8 *224:S 0.000227501
11 *45:8 *256:D 7.05435e-05
12 *48:10 *256:D 0.000248371
*RES
1 *255:Q *71:6 38 
2 *71:6 *224:S 43.3857 
3 *71:6 *256:D 47.5545 
*END

*D_NET *72 0.0053302
*CONN
*I *226:B1 I *D sky130_fd_sc_hd__a21oi_1
*I *257:D I *D sky130_fd_sc_hd__dfxtp_1
*I *225:S0 I *D sky130_fd_sc_hd__mux4_1
*I *227:A2 I *D sky130_fd_sc_hd__a31oi_1
*I *256:Q O *D sky130_fd_sc_hd__dfxtp_1
*CAP
1 *226:B1 0.000372655
2 *257:D 7.045e-05
3 *225:S0 9.62329e-05
4 *227:A2 0
5 *256:Q 0.000286828
6 *72:48 0.000577932
7 *72:29 0.00100198
8 *72:14 0.000840409
9 *72:10 0.000356318
10 *225:S0 *225:A2 5.50049e-05
11 *225:S0 *86:12 0
12 *225:S0 *86:20 2.96051e-05
13 *225:S0 *103:79 1.59094e-05
14 *226:B1 *226:A2 5.3304e-05
15 *226:B1 *84:64 0.000240658
16 *226:B1 *94:22 0.000341109
17 *257:D *94:22 3.33937e-05
18 *72:10 *93:14 5.51294e-05
19 *72:29 *225:A2 0.000208502
20 *72:29 *225:S1 8.73233e-05
21 *72:29 *227:A3 0.000132198
22 *72:48 *86:12 1.22627e-05
23 *72:48 *86:20 8.63741e-05
24 horz_bus_out[3] *72:10 1.01436e-05
25 *19:15 *225:S0 6.38845e-05
26 *19:15 *72:48 0.000181943
27 *49:10 *72:10 1.01436e-05
28 *50:10 *72:10 8.4047e-05
29 *50:10 *72:14 2.64616e-05
*RES
1 *256:Q *72:10 41.9564 
2 *72:10 *72:14 16.0979 
3 *72:14 *227:A2 23 
4 *72:14 *72:29 24.7357 
5 *72:29 *225:S0 40.0921 
6 *72:29 *72:48 18.1071 
7 *72:48 *257:D 24.1445 
8 *72:48 *226:B1 31.0993 
*END

*D_NET *73 0.00231645
*CONN
*I *258:D I *D sky130_fd_sc_hd__dfxtp_1
*I *226:A2 I *D sky130_fd_sc_hd__a21oi_1
*I *227:A3 I *D sky130_fd_sc_hd__a31oi_1
*I *225:S1 I *D sky130_fd_sc_hd__mux4_1
*I *257:Q O *D sky130_fd_sc_hd__dfxtp_1
*CAP
1 *258:D 0.000213722
2 *226:A2 2.32701e-05
3 *227:A3 0.000136604
4 *225:S1 0.000131164
5 *257:Q 9.60605e-05
6 *73:30 0.000297012
7 *73:12 0.0003727
8 *73:8 0.000261012
9 *226:A2 *94:22 5.3304e-05
10 *258:D *74:12 1.93808e-05
11 *73:8 *94:22 4.67488e-05
12 *226:B1 *226:A2 5.3304e-05
13 *15:11 *258:D 0.000150977
14 *15:11 *73:12 0.000136486
15 *15:11 *73:30 7.70737e-05
16 *48:10 *227:A3 2.81066e-05
17 *72:29 *225:S1 8.73233e-05
18 *72:29 *227:A3 0.000132198
*RES
1 *257:Q *73:8 39.0979 
2 *73:8 *73:12 16.9057 
3 *73:12 *225:S1 25.0507 
4 *73:12 *227:A3 25.5479 
5 *73:8 *73:30 1.20143 
6 *73:30 *226:A2 38.6214 
7 *73:30 *258:D 41.4023 
*END

*D_NET *74 0.00777019
*CONN
*I *228:S I *D sky130_fd_sc_hd__mux2_1
*I *259:D I *D sky130_fd_sc_hd__dfxtp_1
*I *258:Q O *D sky130_fd_sc_hd__dfxtp_1
*CAP
1 *228:S 0
2 *259:D 0.000765217
3 *258:Q 0
4 *74:29 0.000762847
5 *74:12 0.00193226
6 *74:4 0.00192989
7 *259:D *294:A 9.84851e-05
8 *259:D *85:26 0.000311554
9 *259:D *94:10 3.53115e-05
10 *259:D *105:47 0.00015818
11 *74:12 *258:CLK 2.19998e-05
12 *74:12 *85:26 0
13 *74:12 *109:12 8.62783e-05
14 *74:29 *105:23 0.000926788
15 vert_bus_out[2] *259:D 4.07542e-05
16 *228:A1 *74:29 5.3304e-05
17 *258:D *74:12 1.93808e-05
18 *263:A *74:12 0.000122038
19 *15:11 *74:29 0.000135037
20 *31:14 *74:12 0.000370859
*RES
1 *258:Q *74:4 23 
2 *74:4 *74:12 46.4886 
3 *74:12 *259:D 37.4845 
4 *74:4 *74:29 47.1721 
5 *74:29 *228:S 23 
*END

*D_NET *75 0.00311045
*CONN
*I *215:S I *D sky130_fd_sc_hd__mux2_1
*I *248:D I *D sky130_fd_sc_hd__dfxtp_1
*I *247:Q O *D sky130_fd_sc_hd__dfxtp_1
*CAP
1 *215:S 0
2 *248:D 0.000166221
3 *247:Q 0.00035993
4 *75:14 0.00039381
5 *75:10 0.000587519
6 *248:D *215:A1 1.5769e-05
7 *248:D *99:24 0.000109355
8 *248:D *99:39 9.41704e-05
9 *75:10 *84:16 0
10 *75:10 *84:22 8.72173e-05
11 *75:14 *215:A1 1.76557e-05
12 *75:14 *87:12 0.000262858
13 *206:B *75:10 0.000161121
14 *215:A0 *75:14 0.000137651
15 *230:A1 *75:14 6.99589e-05
16 *230:B1 *75:14 5.3304e-05
17 *33:37 *75:10 1.41077e-05
18 *38:10 *75:10 0
19 *60:18 *248:D 0.000139352
20 *60:18 *75:14 0.000141052
21 *65:29 *75:10 3.3123e-05
22 *66:21 *75:10 0.000266271
*RES
1 *247:Q *75:10 45.1464 
2 *75:10 *75:14 20.8621 
3 *75:14 *248:D 26.5421 
4 *75:14 *215:S 23 
*END

*D_NET *76 0.00519653
*CONN
*I *249:D I *D sky130_fd_sc_hd__dfxtp_1
*I *216:S I *D sky130_fd_sc_hd__mux2_1
*I *248:Q O *D sky130_fd_sc_hd__dfxtp_1
*CAP
1 *249:D 0
2 *216:S 0
3 *248:Q 6.27375e-05
4 *76:29 0.000577364
5 *76:18 0.000545058
6 *76:8 0.00118516
7 *76:18 *102:8 0.000261044
8 *76:29 *249:CLK 0.000121267
9 vert_bus_out[0] *76:29 0.00087066
10 *275:A *76:18 1.09886e-05
11 *279:A *76:18 9.58714e-05
12 *17:17 *76:18 0
13 *17:17 *76:29 0
14 *57:14 *76:29 0.000975538
15 *57:26 *76:18 0.000295601
16 *57:26 *76:29 0.000195238
*RES
1 *248:Q *76:8 38.6214 
2 *76:8 *76:18 27.1593 
3 *76:18 *216:S 23 
4 *76:8 *76:29 32.5295 
5 *76:29 *249:D 23 
*END

*D_NET *77 0.00257844
*CONN
*I *250:D I *D sky130_fd_sc_hd__dfxtp_1
*I *217:S I *D sky130_fd_sc_hd__mux2_1
*I *249:Q O *D sky130_fd_sc_hd__dfxtp_1
*CAP
1 *250:D 0.000401035
2 *217:S 0.000191546
3 *249:Q 5.28605e-05
4 *77:8 0.000645442
5 *217:S *218:S 0.00021356
6 *217:S *83:18 4.6318e-06
7 *217:S *83:37 2.24973e-05
8 *217:S *84:49 5.67058e-05
9 *217:S *107:26 0.000262829
10 *217:S *109:45 5.50049e-05
11 *250:D *218:S 0.000100778
12 *250:D *235:CLK 2.02872e-05
13 *250:D *251:D 8.62783e-05
14 *250:D *100:59 1.12487e-05
15 *250:D *100:103 0.000131473
16 *250:D *107:26 0.000217595
17 *77:8 *249:CLK 4.9662e-05
18 *77:8 *97:8 5.50049e-05
*RES
1 *249:Q *77:8 39.0979 
2 *77:8 *217:S 42.2879 
3 *77:8 *250:D 46.0423 
*END

*D_NET *78 0.00284241
*CONN
*I *251:D I *D sky130_fd_sc_hd__dfxtp_1
*I *218:S I *D sky130_fd_sc_hd__mux2_1
*I *250:Q O *D sky130_fd_sc_hd__dfxtp_1
*CAP
1 *251:D 0.000290207
2 *218:S 0.00046875
3 *250:Q 0
4 *78:6 0.000758957
5 *218:S *83:37 0.000136486
6 *218:S *84:49 1.83771e-05
7 *218:S *109:45 0.000396993
8 *251:D *79:6 9.67842e-05
9 *251:D *79:14 1.3822e-05
10 *251:D *79:27 5.73018e-05
11 *251:D *80:20 3.26861e-05
12 *251:D *100:59 3.46876e-05
13 *217:S *218:S 0.00021356
14 *250:D *218:S 0.000100778
15 *250:D *251:D 8.62783e-05
16 *44:93 *218:S 0.000136738
*RES
1 *250:Q *78:6 38 
2 *78:6 *218:S 47.6529 
3 *78:6 *251:D 42.9352 
*END

*D_NET *79 0.00337541
*CONN
*I *219:S I *D sky130_fd_sc_hd__mux2_1
*I *252:D I *D sky130_fd_sc_hd__dfxtp_1
*I *251:Q O *D sky130_fd_sc_hd__dfxtp_1
*CAP
1 *219:S 0
2 *252:D 0
3 *251:Q 0.000425116
4 *79:27 0.00031342
5 *79:14 0.00030694
6 *79:6 0.00104548
7 *79:6 *80:20 2.80924e-06
8 *79:14 *100:6 1.64354e-05
9 *79:14 *100:59 0.000217489
10 *79:27 *251:CLK 6.17437e-06
11 *79:27 *80:20 9.83249e-06
12 *79:27 *91:10 2.7524e-05
13 *79:27 *91:24 0.00024501
14 *231:B *79:14 0
15 *231:B *79:27 0.000318025
16 *251:D *79:6 9.67842e-05
17 *251:D *79:14 1.3822e-05
18 *251:D *79:27 5.73018e-05
19 *44:83 *79:27 3.70094e-05
20 *55:12 *79:6 0.000175872
21 *55:12 *79:14 6.03737e-05
*RES
1 *251:Q *79:6 28.3857 
2 *79:6 *79:14 36.323 
3 *79:14 *252:D 23 
4 *79:6 *79:27 36.7736 
5 *79:27 *219:S 23 
*END

*D_NET *80 0.00366773
*CONN
*I *220:S I *D sky130_fd_sc_hd__mux2_1
*I *253:D I *D sky130_fd_sc_hd__dfxtp_1
*I *252:Q O *D sky130_fd_sc_hd__dfxtp_1
*CAP
1 *220:S 0.000164822
2 *253:D 4.3837e-06
3 *252:Q 0.000216004
4 *80:20 0.00101855
5 *80:10 0.00139499
6 *220:S *82:34 6.08617e-05
7 *220:S *109:55 9.41704e-05
8 *253:D *258:CLK 9.95543e-06
9 *80:10 *268:A 9.41704e-05
10 *80:10 *101:98 0.000164291
11 *80:20 *251:CLK 1.59094e-05
12 *80:20 *253:CLK 4.9662e-05
13 *80:20 *258:CLK 1.03871e-05
14 *80:20 *94:22 2.99716e-05
15 *80:20 *100:27 1.41077e-05
16 *80:20 *101:98 0.000139647
17 *80:20 *104:52 4.7869e-05
18 *251:D *80:20 3.26861e-05
19 *55:12 *80:20 9.26527e-05
20 *79:6 *80:20 2.80924e-06
21 *79:27 *80:20 9.83249e-06
*RES
1 *252:Q *80:10 41.3557 
2 *80:10 *80:20 43.2571 
3 *80:20 *253:D 38.1916 
4 *80:10 *220:S 40.5271 
*END

*D_NET *81 0.0067912
*CONN
*I *203:A3 I *D sky130_fd_sc_hd__mux4_2
*I *270:X O *D sky130_fd_sc_hd__clkbuf_1
*CAP
1 *203:A3 0
2 *270:X 0.000304184
3 *81:18 0.00195605
4 *81:8 0.00226024
5 *81:18 *245:CLK 0.000131087
6 *81:18 *262:A 0.00010129
7 *81:18 *101:33 5.30121e-05
8 *81:18 *101:37 0.000108673
9 *81:18 *101:49 9.74235e-05
10 *81:18 *101:51 2.60152e-05
11 *81:18 *104:33 0.000344596
12 *81:18 *104:41 0.000355115
13 *81:18 *108:14 0.000224605
14 *206:A_N *81:18 6.41989e-05
15 *224:S *81:18 0.000177536
16 *255:D *81:18 8.29289e-05
17 *22:21 *81:8 2.93747e-05
18 *31:8 *81:18 0.000300203
19 *33:10 *81:18 1.61361e-05
20 *45:8 *81:18 8.30566e-06
21 *65:8 *81:18 3.83778e-05
22 *68:21 *81:18 0.000111852
*RES
1 *270:X *81:8 41.48 
2 *81:8 *81:18 48.8057 
3 *81:18 *203:A3 23 
*END

*D_NET *82 0.0105997
*CONN
*I *220:A1 I *D sky130_fd_sc_hd__mux2_1
*I *271:X O *D sky130_fd_sc_hd__clkbuf_1
*CAP
1 *220:A1 0
2 *271:X 0.000248416
3 *82:34 0.00106018
4 *82:24 0.00302998
5 *82:8 0.00221822
6 *82:24 *221:A2 0.00028326
7 *82:24 *84:49 6.1121e-05
8 *82:24 *84:64 0.000299355
9 *82:24 *86:20 1.69834e-05
10 *82:24 *87:12 3.72639e-05
11 *82:24 *87:20 7.1357e-05
12 *82:24 *101:45 0.000395827
13 *82:24 *109:12 2.05503e-05
14 *82:34 *294:A 3.47781e-05
15 *82:34 *91:10 0.000391197
16 *82:34 *91:24 6.2304e-05
17 *82:34 *98:10 0.000435589
18 *82:34 *104:52 0.000687946
19 *82:34 *109:55 5.3304e-05
20 *220:S *82:34 6.08617e-05
21 *224:A0 *82:24 0.000166944
22 *234:D *82:34 6.17437e-06
23 *260:A *82:34 0
24 *19:15 *82:24 0
25 *22:21 *82:8 0.000133734
26 *31:14 *82:24 0.000388896
27 *46:10 *82:34 8.1266e-05
28 *51:10 *82:24 3.04021e-05
29 *67:8 *82:24 0.000323803
*RES
1 *271:X *82:8 41.0036 
2 *82:8 *82:24 42.2974 
3 *82:24 *82:34 36.8018 
4 *82:34 *220:A1 23 
*END

*D_NET *83 0.00733672
*CONN
*I *225:A2 I *D sky130_fd_sc_hd__mux4_1
*I *222:A1 I *D sky130_fd_sc_hd__a21oi_1
*I *217:A1 I *D sky130_fd_sc_hd__mux2_1
*I *272:X O *D sky130_fd_sc_hd__buf_1
*CAP
1 *225:A2 0.000477491
2 *222:A1 0
3 *217:A1 2.32701e-05
4 *272:X 0.000521461
5 *83:37 0.0011113
6 *83:18 0.00121768
7 *83:12 0.00108206
8 *217:A1 *84:49 5.3304e-05
9 *217:A1 *109:45 5.3304e-05
10 *225:A2 *103:79 3.37192e-05
11 *83:12 *99:39 0.000132927
12 *83:12 *102:33 0
13 *83:12 *107:26 6.6663e-06
14 *83:18 *107:26 0.00061849
15 *83:37 *249:CLK 0.000175903
16 *83:37 *108:22 5.3304e-05
17 *217:S *83:18 4.6318e-06
18 *217:S *83:37 2.24973e-05
19 *218:S *83:37 0.000136486
20 *225:A0 *225:A2 2.28212e-05
21 *225:S0 *225:A2 5.50049e-05
22 *238:D *83:18 0.000235604
23 *272:A *83:12 6.17437e-06
24 *38:10 *83:12 5.85822e-06
25 *44:77 *83:37 0.000148618
26 *44:83 *83:37 5.3304e-05
27 *44:93 *83:37 0.00021677
28 *58:21 *83:12 8.85189e-05
29 *58:21 *83:18 3.07104e-05
30 *59:10 *83:18 0.000127791
31 *60:18 *83:12 0.000179026
32 *69:14 *225:A2 0.000136743
33 *69:14 *83:37 9.67842e-05
34 *72:29 *225:A2 0.000208502
*RES
1 *272:X *83:12 46.555 
2 *83:12 *83:18 10.5436 
3 *83:18 *217:A1 38.6214 
4 *83:18 *83:37 25.5436 
5 *83:37 *222:A1 23 
6 *83:37 *225:A2 32.0988 
*END

*D_NET *84 0.0117996
*CONN
*I *226:A1 I *D sky130_fd_sc_hd__a21oi_1
*I *218:A1 I *D sky130_fd_sc_hd__mux2_1
*I *221:A1 I *D sky130_fd_sc_hd__mux4_1
*I *273:X O *D sky130_fd_sc_hd__buf_1
*CAP
1 *226:A1 0
2 *218:A1 0
3 *221:A1 0
4 *273:X 0.000297726
5 *84:64 0.000905259
6 *84:49 0.000781296
7 *84:33 0.0017999
8 *84:22 0.00067024
9 *84:16 0.0013394
10 *84:8 0.00108023
11 *84:8 *87:20 0.000185428
12 *84:16 *86:20 0
13 *84:16 *87:20 0
14 *84:16 *108:14 0
15 *84:22 *103:43 7.70971e-05
16 *84:22 *104:33 4.36457e-05
17 *84:22 *104:52 0.000127143
18 *84:33 *104:52 0.000185228
19 *84:49 *256:CLK 6.36917e-05
20 *84:49 *91:24 5.09165e-05
21 *84:49 *95:10 0.000178517
22 *84:49 *101:33 0.000123037
23 *84:49 *109:45 0.000178253
24 *84:64 *221:A2 9.92347e-05
25 *84:64 *86:12 1.51903e-05
26 *84:64 *86:20 0.000483293
27 *84:64 *101:33 9.52934e-05
28 *84:64 *109:12 0.000407288
29 clk_out *84:16 0
30 *206:B *84:22 0.000108181
31 *209:A *84:22 8.72173e-05
32 *217:A1 *84:49 5.3304e-05
33 *217:S *84:49 5.67058e-05
34 *218:S *84:49 1.83771e-05
35 *226:B1 *84:64 0.000240658
36 *230:B1 *84:16 0.000112087
37 *242:D *84:16 0
38 *273:A *84:8 0.000145621
39 *273:A *84:16 1.09783e-05
40 *33:10 *84:22 0.000211914
41 *37:16 *84:16 0.000202179
42 *38:10 *84:22 1.69668e-05
43 *38:21 *84:22 0.000163352
44 *41:10 *84:16 8.4047e-05
45 *43:10 *84:22 0.000134383
46 *44:20 *84:22 5.01686e-05
47 *44:58 *84:22 0.000199229
48 *44:58 *84:33 4.77164e-06
49 *44:69 *84:33 8.25449e-05
50 *46:10 *84:49 4.82774e-05
51 *65:29 *84:16 0.000133656
52 *75:10 *84:16 0
53 *75:10 *84:22 8.72173e-05
54 *82:24 *84:49 6.1121e-05
55 *82:24 *84:64 0.000299355
*RES
1 *273:X *84:8 42.9093 
2 *84:8 *84:16 43.9407 
3 *84:16 *84:22 12.8843 
4 *84:22 *221:A1 38 
5 *84:22 *84:33 10.7861 
6 *84:33 *84:49 34.0185 
7 *84:49 *218:A1 23 
8 *84:33 *84:64 35.531 
9 *84:64 *226:A1 23 
*END

*D_NET *85 0.00765448
*CONN
*I *282:A I *D sky130_fd_sc_hd__buf_2
*I *230:X O *D sky130_fd_sc_hd__a21o_1
*CAP
1 *282:A 0
2 *230:X 0.000452743
3 *85:26 0.00164203
4 *85:16 0.00209477
5 *85:16 *86:20 0
6 *85:16 *87:12 0.000137651
7 *85:26 *86:12 6.92503e-05
8 *85:26 *94:22 8.98044e-05
9 *85:26 *101:33 0.000120804
10 *85:26 *105:47 0.000212166
11 *85:26 *109:71 3.99932e-05
12 *206:B *85:16 8.27306e-05
13 *230:B1 *85:16 0.000139357
14 *255:D *85:26 0.000176098
15 *259:D *85:26 0.000311554
16 *265:A *85:26 4.07715e-05
17 *19:15 *85:16 2.94495e-05
18 *19:15 *85:26 0.000345713
19 *36:10 *85:16 0.00015422
20 *37:16 *85:16 5.97612e-05
21 *38:31 *85:16 0.000205968
22 *41:10 *85:16 0.00021263
23 *44:58 *85:16 2.75733e-06
24 *44:69 *85:26 0
25 *53:10 *85:26 2.54046e-05
26 *56:10 *85:26 0.000482805
27 *69:10 *85:26 0.000366502
28 *70:12 *85:26 3.63713e-05
29 *70:23 *85:26 0.000123172
30 *74:12 *85:26 0
*RES
1 *230:X *85:16 49.0304 
2 *85:16 *85:26 49.1268 
3 *85:26 *282:A 23 
*END

*D_NET *86 0.00763566
*CONN
*I *283:A I *D sky130_fd_sc_hd__buf_1
*I *260:X O *D sky130_fd_sc_hd__buf_2
*CAP
1 *283:A 0.000209471
2 *260:X 0.000418025
3 *86:20 0.00148954
4 *86:12 0.00169809
5 *283:A *87:20 0.000111726
6 *86:12 *200:A 0.0001235
7 *86:12 *109:12 8.90246e-05
8 *86:20 *221:A2 0.000121389
9 *86:20 *285:A 8.62876e-05
10 *86:20 *87:12 2.81216e-05
11 *86:20 *87:20 0.000303552
12 *86:20 *101:45 6.92889e-05
13 *86:20 *103:79 0.000288391
14 *86:20 *104:41 0.000127143
15 *86:20 *107:14 2.05503e-05
16 clk_out *283:A 0.000265466
17 clk_out *86:20 3.70187e-05
18 *224:A0 *86:20 0.000350887
19 *225:S0 *86:12 0
20 *225:S0 *86:20 2.96051e-05
21 *273:A *283:A 0.000181919
22 *19:15 *86:12 4.0371e-05
23 *19:15 *86:20 9.0869e-05
24 *22:21 *86:20 2.26406e-05
25 *33:29 *86:20 0.000241073
26 *33:37 *86:20 0.000128761
27 *34:38 *86:20 4.57952e-05
28 *37:16 *86:20 0.000169513
29 *51:10 *86:20 0.000164291
30 *72:48 *86:12 1.22627e-05
31 *72:48 *86:20 8.63741e-05
32 *82:24 *86:20 1.69834e-05
33 *84:16 *86:20 0
34 *84:64 *86:12 1.51903e-05
35 *84:64 *86:20 0.000483293
36 *85:16 *86:20 0
37 *85:26 *86:12 6.92503e-05
*RES
1 *260:X *86:12 46.0061 
2 *86:12 *86:20 47.2418 
3 *86:20 *283:A 27.93 
*END

*D_NET *87 0.00465327
*CONN
*I *284:A I *D sky130_fd_sc_hd__buf_2
*I *215:X O *D sky130_fd_sc_hd__mux2_1
*CAP
1 *284:A 0
2 *215:X 0.000627171
3 *87:20 0.000643111
4 *87:12 0.00127028
5 *87:12 *246:CLK 6.17437e-06
6 *87:20 *285:A 8.4047e-05
7 clk_out *87:20 6.66579e-05
8 reset_out *87:20 5.37348e-06
9 *212:A0 *87:12 1.03836e-05
10 *212:S *87:12 5.3304e-05
11 *230:B1 *87:12 0.000116949
12 *273:A *87:20 9.84851e-05
13 *283:A *87:20 0.000111726
14 *22:21 *87:20 2.05503e-05
15 *51:10 *87:12 6.25829e-05
16 *64:8 *87:20 0.000191148
17 *66:21 *87:20 0.000138718
18 *67:8 *87:12 5.72389e-05
19 *67:8 *87:20 6.31372e-05
20 *75:14 *87:12 0.000262858
21 *82:24 *87:12 3.72639e-05
22 *82:24 *87:20 7.1357e-05
23 *84:8 *87:20 0.000185428
24 *84:16 *87:20 0
25 *85:16 *87:12 0.000137651
26 *86:20 *87:12 2.81216e-05
27 *86:20 *87:20 0.000303552
*RES
1 *215:X *87:12 48.7404 
2 *87:12 *87:20 30.6704 
3 *87:20 *284:A 23 
*END

*D_NET *88 0.00434026
*CONN
*I *285:A I *D sky130_fd_sc_hd__buf_2
*I *216:X O *D sky130_fd_sc_hd__mux2_1
*CAP
1 *285:A 0.000840295
2 *216:X 0.00088503
3 *88:8 0.00172533
4 *285:A *247:CLK 6.04336e-05
5 *88:8 *244:CLK 0.000428036
6 horz_bus_out[1] *285:A 5.50303e-05
7 *207:A0 *88:8 9.88574e-06
8 *244:D *88:8 4.18201e-05
9 *37:10 *88:8 7.45797e-06
10 *44:34 *88:8 1.21972e-05
11 *65:16 *88:8 5.76642e-05
12 *66:21 *285:A 4.67488e-05
13 *86:20 *285:A 8.62876e-05
14 *87:20 *285:A 8.4047e-05
*RES
1 *216:X *88:8 49.5793 
2 *88:8 *285:A 48.9371 
*END

*D_NET *89 0.00043401
*CONN
*I *286:A I *D sky130_fd_sc_hd__buf_2
*I *224:X O *D sky130_fd_sc_hd__mux2_1
*CAP
1 *286:A 0.000213918
2 *224:X 0.000213918
3 horz_bus_out[2] *286:A 6.17437e-06
*RES
1 *224:X *286:A 48.9 
*END

*D_NET *90 0.000437422
*CONN
*I *287:A I *D sky130_fd_sc_hd__buf_2
*I *228:X O *D sky130_fd_sc_hd__mux2_1
*CAP
1 *287:A 0
2 *228:X 4.89772e-05
3 *90:8 4.89772e-05
4 *90:8 *93:14 0.000167562
5 *90:8 *105:23 0.000171906
*RES
1 *228:X *90:8 40.2579 
2 *90:8 *287:A 38 
*END

*D_NET *91 0.0110381
*CONN
*I *288:A I *D sky130_fd_sc_hd__buf_2
*I *261:X O *D sky130_fd_sc_hd__clkbuf_1
*CAP
1 *288:A 0
2 *261:X 0.000533329
3 *91:34 0.00120958
4 *91:24 0.00264297
5 *91:10 0.00196672
6 *91:10 *294:A 0.000123969
7 *91:10 *94:10 0.000139357
8 *91:10 *100:18 7.45175e-05
9 *91:10 *104:60 0.000268221
10 *91:24 *99:39 0
11 *91:24 *102:33 7.72536e-05
12 *91:24 *103:64 0.000160893
13 *91:24 *104:33 4.56255e-05
14 *91:24 *107:26 0
15 *91:24 *108:14 0.00026352
16 *91:24 *108:22 0.000214781
17 *91:34 *243:CLK 0.000149822
18 horz_bus_out[0] *91:34 6.70361e-05
19 reset_out *91:34 0.000152128
20 *203:S0 *91:24 0.000155677
21 *205:A1 *91:24 0.000126261
22 *206:A_N *91:24 0.000112263
23 *231:B *91:10 4.08376e-06
24 *22:21 *91:34 0.000163299
25 *29:8 *91:10 8.85189e-05
26 *33:54 *91:24 0.000185755
27 *44:22 *91:24 0.000365572
28 *44:34 *91:24 0.000138815
29 *44:83 *91:24 3.47879e-05
30 *46:10 *91:24 0.000271853
31 *60:18 *91:24 0.000427856
32 *62:10 *91:24 0
33 *64:12 *91:34 3.51008e-05
34 *64:22 *91:24 3.14315e-05
35 *64:22 *91:34 3.01878e-05
36 *79:27 *91:10 2.7524e-05
37 *79:27 *91:24 0.00024501
38 *82:34 *91:10 0.000391197
39 *82:34 *91:24 6.2304e-05
40 *84:49 *91:24 5.09165e-05
*RES
1 *261:X *91:10 49.5896 
2 *91:10 *91:24 47.8218 
3 *91:24 *91:34 46.8407 
4 *91:34 *288:A 23 
*END

*D_NET *92 0.00314808
*CONN
*I *215:A1 I *D sky130_fd_sc_hd__mux2_1
*I *208:A0 I *D sky130_fd_sc_hd__mux2_1
*I *274:X O *D sky130_fd_sc_hd__clkbuf_1
*CAP
1 *215:A1 0.000453712
2 *208:A0 0
3 *274:X 0.000541379
4 *92:10 0.000995091
5 *215:A1 *99:24 0.00026025
6 *215:A1 *99:39 4.05745e-05
7 *215:A1 *102:12 6.48049e-05
8 *215:A1 *102:33 1.23172e-05
9 *215:A1 *106:14 0.000129504
10 *92:10 *240:CLK 3.3577e-05
11 *92:10 *102:12 0.000224345
12 *92:10 *106:14 0.000169674
13 *92:10 *108:8 5.85822e-06
14 *248:D *215:A1 1.5769e-05
15 *22:21 *92:10 0.000183572
16 *75:14 *215:A1 1.76557e-05
*RES
1 *274:X *92:10 47.9429 
2 *92:10 *208:A0 38 
3 *92:10 *215:A1 44.815 
*END

*D_NET *93 0.00301426
*CONN
*I *289:A I *D sky130_fd_sc_hd__buf_2
*I *262:X O *D sky130_fd_sc_hd__clkbuf_1
*CAP
1 *289:A 0
2 *262:X 3.92137e-05
3 *93:14 0.000698784
4 *93:8 0.000737998
5 *93:8 *105:23 5.67058e-05
6 *93:14 *105:23 0.000530899
7 *93:14 *105:37 0.000141227
8 horz_bus_out[3] *93:14 5.05059e-05
9 shift_clk_out *93:14 3.71251e-05
10 *15:19 *93:14 7.86958e-05
11 *20:18 *93:14 8.63849e-05
12 *30:14 *93:14 0.000108679
13 *49:10 *93:14 0.000169665
14 *50:10 *93:14 5.56892e-05
15 *72:10 *93:14 5.51294e-05
16 *90:8 *93:14 0.000167562
*RES
1 *262:X *93:8 38.6214 
2 *93:8 *93:14 34.9064 
3 *93:14 *289:A 23 
*END

*D_NET *94 0.00494056
*CONN
*I *233:B2 I *D sky130_fd_sc_hd__o2bb2a_1
*I *290:A I *D sky130_fd_sc_hd__buf_2
*I *259:Q O *D sky130_fd_sc_hd__dfxtp_1
*CAP
1 *233:B2 0
2 *290:A 0
3 *259:Q 0.000243827
4 *94:22 0.00134954
5 *94:10 0.00159337
6 *94:10 *294:A 0
7 *94:10 *105:47 0.000269775
8 *94:22 *257:CLK 6.17437e-06
9 *94:22 *294:A 0
10 *94:22 *104:52 0
11 *226:A2 *94:22 5.3304e-05
12 *226:B1 *94:22 0.000341109
13 *257:D *94:22 3.33937e-05
14 *259:D *94:10 3.53115e-05
15 *264:A *94:10 9.48318e-05
16 *264:A *94:22 0.000163352
17 *265:A *94:10 0.000102638
18 *20:18 *94:22 5.37348e-06
19 *49:10 *94:22 0.000110533
20 *56:10 *94:22 1.37246e-05
21 *69:10 *94:22 0.000218416
22 *73:8 *94:22 4.67488e-05
23 *80:20 *94:22 2.99716e-05
24 *85:26 *94:22 8.98044e-05
25 *91:10 *94:10 0.000139357
*RES
1 *259:Q *94:10 44.5664 
2 *94:10 *94:22 37.3714 
3 *94:22 *290:A 23 
4 *94:10 *233:B2 38 
*END

*D_NET *95 0.00264275
*CONN
*I *291:A I *D sky130_fd_sc_hd__buf_2
*I *217:X O *D sky130_fd_sc_hd__mux2_1
*CAP
1 *291:A 5.68521e-05
2 *217:X 0.000578038
3 *95:10 0.00063489
4 *95:10 *96:8 8.91468e-07
5 *95:10 *109:45 2.03764e-06
6 *95:10 *109:55 6.74969e-06
7 vert_bus_out[0] *95:10 0.000573453
8 *10:19 *291:A 5.50049e-05
9 *10:19 *95:10 0.000537427
10 *17:17 *95:10 1.13589e-05
11 *25:8 *291:A 7.53384e-06
12 *84:49 *95:10 0.000178517
*RES
1 *217:X *95:10 49.8486 
2 *95:10 *291:A 39.0979 
*END

*D_NET *96 0.00307891
*CONN
*I *292:A I *D sky130_fd_sc_hd__buf_2
*I *218:X O *D sky130_fd_sc_hd__mux2_1
*CAP
1 *292:A 0
2 *218:X 6.23257e-05
3 *96:12 0.000393658
4 *96:8 0.000455984
5 *96:12 *109:55 0.000807172
6 vert_bus_out[0] *96:12 0.00124046
7 *17:17 *96:12 0.000118423
8 *95:10 *96:8 8.91468e-07
*RES
1 *218:X *96:8 38.6214 
2 *96:8 *96:12 31.3436 
3 *96:12 *292:A 23 
*END

*D_NET *97 0.00350103
*CONN
*I *293:A I *D sky130_fd_sc_hd__buf_2
*I *219:X O *D sky130_fd_sc_hd__mux2_1
*CAP
1 *293:A 0
2 *219:X 0.000248714
3 *97:14 0.000985743
4 *97:8 0.00123446
5 *97:8 *249:CLK 6.64565e-05
6 *97:14 *259:CLK 0.000146743
7 *97:14 *101:98 0.000742284
8 vert_bus_out[1] *97:14 7.53384e-06
9 vert_bus_out[2] *97:14 1.40958e-05
10 *77:8 *97:8 5.50049e-05
*RES
1 *219:X *97:8 41.0036 
2 *97:8 *97:14 29.6243 
3 *97:14 *293:A 23 
*END

*D_NET *98 0.00283943
*CONN
*I *294:A I *D sky130_fd_sc_hd__buf_2
*I *220:X O *D sky130_fd_sc_hd__mux2_1
*CAP
1 *294:A 0.00033033
2 *220:X 0.000385693
3 *98:10 0.000716023
4 *294:A *105:47 9.84851e-05
5 *234:D *98:10 1.21972e-05
6 *259:D *294:A 9.84851e-05
7 *260:A *98:10 0.000517593
8 *29:8 *294:A 8.62876e-05
9 *82:34 *294:A 3.47781e-05
10 *82:34 *98:10 0.000435589
11 *91:10 *294:A 0.000123969
12 *94:10 *294:A 0
13 *94:22 *294:A 0
*RES
1 *220:X *98:10 47.2179 
2 *98:10 *294:A 45.2293 
*END

*D_NET *99 0.0118498
*CONN
*I *237:CLK I *D sky130_fd_sc_hd__dfxtp_1
*I *238:CLK I *D sky130_fd_sc_hd__dfxtp_1
*I *236:CLK I *D sky130_fd_sc_hd__dfxtp_1
*I *244:CLK I *D sky130_fd_sc_hd__dfxtp_1
*I *243:CLK I *D sky130_fd_sc_hd__dfxtp_1
*I *241:CLK I *D sky130_fd_sc_hd__dfxtp_1
*I *239:CLK I *D sky130_fd_sc_hd__dfxtp_1
*I *242:CLK I *D sky130_fd_sc_hd__dfxtp_1
*I *240:CLK I *D sky130_fd_sc_hd__dfxtp_1
*I *248:CLK I *D sky130_fd_sc_hd__dfxtp_1
*I *267:X O *D sky130_fd_sc_hd__clkbuf_2
*CAP
1 *237:CLK 0.000460061
2 *238:CLK 0.000124846
3 *236:CLK 0.0003079
4 *244:CLK 0.00018509
5 *243:CLK 0.000304546
6 *241:CLK 0
7 *239:CLK 0
8 *242:CLK 0.00016535
9 *240:CLK 0.000157672
10 *248:CLK 0
11 *267:X 0.000332867
12 *99:76 0.000338177
13 *99:69 3.36312e-05
14 *99:45 0.000487931
15 *99:41 0.00029251
16 *99:39 0.000578737
17 *99:24 0.000591442
18 *99:14 0.00073673
19 *99:12 0.000461878
20 *99:8 0.00102652
21 *236:CLK *103:26 8.90928e-05
22 *237:CLK *101:21 8.90713e-05
23 *237:CLK *104:10 0.000129284
24 *238:CLK *104:10 1.85916e-05
25 *240:CLK *108:8 0.000353731
26 *242:CLK *108:8 0.000360277
27 *99:8 *267:A 2.42041e-05
28 *99:8 *104:14 3.82058e-06
29 *99:8 *106:14 1.59094e-05
30 *99:12 *104:10 7.68979e-05
31 *99:12 *106:14 4.36603e-05
32 *99:14 *106:14 0.000157309
33 *99:24 *106:14 0.0002499
34 *99:39 *102:33 3.40499e-05
35 *205:A0 *99:39 7.81176e-05
36 *205:A0 *99:41 8.92841e-05
37 *207:A0 *244:CLK 2.79662e-05
38 *215:A1 *99:24 0.00026025
39 *215:A1 *99:39 4.05745e-05
40 *236:D *236:CLK 0.000114425
41 *240:D *240:CLK 0.000266204
42 *240:D *242:CLK 9.84851e-05
43 *240:D *99:41 3.90766e-05
44 *240:D *99:45 0.00011218
45 *241:D *243:CLK 1.64354e-05
46 *248:D *99:24 0.000109355
47 *248:D *99:39 9.41704e-05
48 *272:A *99:39 2.10884e-05
49 *272:A *99:45 1.97579e-06
50 *10:19 *238:CLK 2.41378e-06
51 *33:54 *244:CLK 0.000219383
52 *44:34 *244:CLK 7.27986e-05
53 *57:14 *236:CLK 1.24376e-05
54 *58:21 *237:CLK 8.04002e-05
55 *59:10 *237:CLK 8.79848e-05
56 *60:18 *99:39 0.000209992
57 *60:18 *99:41 0.000217489
58 *61:8 *243:CLK 2.93747e-05
59 *61:8 *99:76 1.41077e-05
60 *62:10 *242:CLK 3.06338e-05
61 *64:22 *243:CLK 0.000527112
62 *83:12 *99:39 0.000132927
63 *88:8 *244:CLK 0.000428036
64 *91:24 *99:39 0
65 *91:34 *243:CLK 0.000149822
66 *92:10 *240:CLK 3.3577e-05
*RES
1 *267:X *99:8 41.48 
2 *99:8 *99:12 3.23143 
3 *99:12 *99:14 2.25786 
4 *99:14 *99:24 22.3121 
5 *99:24 *248:CLK 23 
6 *99:24 *99:39 21.9393 
7 *99:39 *99:41 3.66643 
8 *99:41 *99:45 18.3143 
9 *99:45 *240:CLK 28.075 
10 *99:45 *242:CLK 28.5514 
11 *99:41 *99:69 15 
12 *99:69 *239:CLK 23 
13 *99:69 *99:76 0.621429 
14 *99:76 *241:CLK 23 
15 *99:76 *243:CLK 31.265 
16 *99:39 *244:CLK 43.4064 
17 *99:14 *236:CLK 42.93 
18 *99:12 *238:CLK 39.595 
19 *99:8 *237:CLK 44.67 
*END

*D_NET *100 0.0119623
*CONN
*I *252:CLK I *D sky130_fd_sc_hd__dfxtp_1
*I *257:CLK I *D sky130_fd_sc_hd__dfxtp_1
*I *250:CLK I *D sky130_fd_sc_hd__dfxtp_1
*I *235:CLK I *D sky130_fd_sc_hd__dfxtp_1
*I *249:CLK I *D sky130_fd_sc_hd__dfxtp_1
*I *256:CLK I *D sky130_fd_sc_hd__dfxtp_1
*I *254:CLK I *D sky130_fd_sc_hd__dfxtp_1
*I *253:CLK I *D sky130_fd_sc_hd__dfxtp_1
*I *258:CLK I *D sky130_fd_sc_hd__dfxtp_1
*I *251:CLK I *D sky130_fd_sc_hd__dfxtp_1
*I *268:X O *D sky130_fd_sc_hd__clkbuf_2
*CAP
1 *252:CLK 0
2 *257:CLK 3.36053e-05
3 *250:CLK 0
4 *235:CLK 0.000147857
5 *249:CLK 0.000567173
6 *256:CLK 0.000389712
7 *254:CLK 0
8 *253:CLK 5.80295e-05
9 *258:CLK 0.000677732
10 *251:CLK 3.80323e-05
11 *268:X 0.000592332
12 *100:103 0.000546392
13 *100:88 0.000660644
14 *100:65 0.000476159
15 *100:61 0.000753428
16 *100:59 0.000444975
17 *100:27 0.000756807
18 *100:18 0.000147182
19 *100:14 0.000657952
20 *100:6 0.000817014
21 *235:CLK *107:26 0.000128786
22 *256:CLK *109:31 0.000114856
23 *256:CLK *109:45 0.000153446
24 *100:6 *268:A 0.000219383
25 *100:14 *104:60 0.000241365
26 *100:18 *104:60 1.01436e-05
27 *100:59 *107:26 2.46345e-05
28 *100:61 *107:26 0.000185104
29 *100:61 *108:22 1.01436e-05
30 *100:65 *107:26 0.000187977
31 *100:65 *108:22 0.000185755
32 *231:B *100:14 0.000231221
33 *231:B *100:18 0.000164282
34 *231:B *100:59 0.000159168
35 *231:B *100:61 6.07826e-05
36 *233:A1_N *100:14 6.17437e-06
37 *250:D *235:CLK 2.02872e-05
38 *250:D *100:59 1.12487e-05
39 *250:D *100:103 0.000131473
40 *251:D *100:59 3.46876e-05
41 *253:D *258:CLK 9.95543e-06
42 *254:D *256:CLK 0.000141648
43 *260:A *100:59 0.000181125
44 *44:83 *100:61 2.84912e-05
45 *44:93 *249:CLK 0.000101436
46 *69:10 *258:CLK 0.000349818
47 *69:22 *256:CLK 0.00012692
48 *70:12 *256:CLK 5.12328e-05
49 *70:23 *256:CLK 1.59094e-05
50 *74:12 *258:CLK 2.19998e-05
51 *76:29 *249:CLK 0.000121267
52 *77:8 *249:CLK 4.9662e-05
53 *79:14 *100:6 1.64354e-05
54 *79:14 *100:59 0.000217489
55 *79:27 *251:CLK 6.17437e-06
56 *80:20 *251:CLK 1.59094e-05
57 *80:20 *253:CLK 4.9662e-05
58 *80:20 *258:CLK 1.03871e-05
59 *80:20 *100:27 1.41077e-05
60 *83:37 *249:CLK 0.000175903
61 *84:49 *256:CLK 6.36917e-05
62 *91:10 *100:18 7.45175e-05
63 *94:22 *257:CLK 6.17437e-06
64 *97:8 *249:CLK 6.64565e-05
*RES
1 *268:X *100:6 32.1971 
2 *100:6 *100:14 19.9093 
3 *100:14 *100:18 17.2579 
4 *100:18 *251:CLK 23.6214 
5 *100:18 *100:27 0.621429 
6 *100:27 *258:CLK 34.6621 
7 *100:27 *253:CLK 24.595 
8 *100:14 *100:59 37.4779 
9 *100:59 *100:61 2.61 
10 *100:61 *100:65 17.61 
11 *100:65 *254:CLK 23 
12 *100:65 *256:CLK 31.7207 
13 *100:61 *249:CLK 47.1971 
14 *100:59 *100:88 15 
15 *100:88 *235:CLK 25.5479 
16 *100:88 *100:103 7.20857 
17 *100:103 *250:CLK 23 
18 *100:103 *257:CLK 23.6214 
19 *100:6 *252:CLK 23 
*END

*D_NET *101 0.0154921
*CONN
*I *259:CLK I *D sky130_fd_sc_hd__dfxtp_1
*I *268:A I *D sky130_fd_sc_hd__clkbuf_2
*I *255:CLK I *D sky130_fd_sc_hd__dfxtp_1
*I *262:A I *D sky130_fd_sc_hd__clkbuf_1
*I *246:CLK I *D sky130_fd_sc_hd__dfxtp_1
*I *247:CLK I *D sky130_fd_sc_hd__dfxtp_1
*I *245:CLK I *D sky130_fd_sc_hd__dfxtp_1
*I *267:A I *D sky130_fd_sc_hd__clkbuf_2
*I *269:X O *D sky130_fd_sc_hd__clkbuf_2
*CAP
1 *259:CLK 0.000261737
2 *268:A 0.000128953
3 *255:CLK 0
4 *262:A 0.000764269
5 *246:CLK 0.000213843
6 *247:CLK 0.000150257
7 *245:CLK 0.000501541
8 *267:A 0.000174239
9 *269:X 0
10 *101:98 0.0011367
11 *101:51 0.000794616
12 *101:49 0.000517515
13 *101:45 0.000624824
14 *101:37 0.00158812
15 *101:33 0.00160815
16 *101:21 0.00228731
17 *101:4 0.000467263
18 *262:A *201:A 1.61361e-05
19 *262:A *105:23 2.94211e-05
20 *267:A *106:14 5.3304e-05
21 *101:21 *104:10 1.05441e-05
22 *101:45 *107:14 7.57281e-06
23 *101:98 *109:45 5.94125e-05
24 vert_bus_out[1] *259:CLK 0
25 vert_bus_out[2] *259:CLK 5.50106e-05
26 *212:A0 *246:CLK 5.3304e-05
27 *212:A1 *246:CLK 8.79848e-05
28 *224:A0 *101:45 6.42799e-05
29 *237:CLK *101:21 8.90713e-05
30 *245:D *245:CLK 0.000265943
31 *246:D *246:CLK 8.04002e-05
32 *285:A *247:CLK 6.04336e-05
33 *15:19 *262:A 3.23186e-05
34 *31:8 *262:A 8.06804e-06
35 *36:10 *101:33 2.64616e-05
36 *44:58 *101:33 8.71709e-05
37 *44:69 *101:33 4.07126e-05
38 *44:93 *101:98 8.85189e-05
39 *51:10 *101:45 5.50049e-05
40 *68:21 *245:CLK 1.14452e-05
41 *68:21 *247:CLK 1.74843e-05
42 *68:21 *101:51 0.000114074
43 *80:10 *268:A 9.41704e-05
44 *80:10 *101:98 0.000164291
45 *80:20 *101:98 0.000139647
46 *81:18 *245:CLK 0.000131087
47 *81:18 *262:A 0.00010129
48 *81:18 *101:33 5.30121e-05
49 *81:18 *101:37 0.000108673
50 *81:18 *101:49 9.74235e-05
51 *81:18 *101:51 2.60152e-05
52 *82:24 *101:45 0.000395827
53 *84:49 *101:33 0.000123037
54 *84:64 *101:33 9.52934e-05
55 *85:26 *101:33 0.000120804
56 *86:20 *101:45 6.92889e-05
57 *87:12 *246:CLK 6.17437e-06
58 *97:14 *259:CLK 0.000146743
59 *97:14 *101:98 0.000742284
60 *99:8 *267:A 2.42041e-05
61 *100:6 *268:A 0.000219383
*RES
1 *269:X *101:4 23 
2 *101:4 *267:A 25.5479 
3 *101:4 *101:21 18.9046 
4 *101:21 *101:33 38.3234 
5 *101:33 *101:37 4.80571 
6 *101:37 *101:45 38.4307 
7 *101:45 *101:49 17.61 
8 *101:49 *101:51 2.25786 
9 *101:51 *245:CLK 46.0993 
10 *101:51 *247:CLK 40.5479 
11 *101:49 *246:CLK 41.48 
12 *101:37 *262:A 32.4457 
13 *101:33 *255:CLK 23 
14 *101:21 *101:98 15.4632 
15 *101:98 *268:A 40.5271 
16 *101:98 *259:CLK 42.8471 
*END

*D_NET *102 0.00349849
*CONN
*I *216:A1 I *D sky130_fd_sc_hd__mux2_1
*I *204:A0 I *D sky130_fd_sc_hd__mux2_1
*I *208:A1 I *D sky130_fd_sc_hd__mux2_1
*I *275:X O *D sky130_fd_sc_hd__clkbuf_1
*CAP
1 *216:A1 0
2 *204:A0 0
3 *208:A1 0.000110836
4 *275:X 0.000246766
5 *102:33 0.000675478
6 *102:12 0.00102047
7 *102:8 0.000480921
8 *102:8 *106:8 9.5877e-05
9 *102:33 *107:14 0
10 *215:A1 *102:12 6.48049e-05
11 *215:A1 *102:33 1.23172e-05
12 *22:21 *102:33 0
13 *60:18 *102:33 0.000194327
14 *76:18 *102:8 0.000261044
15 *83:12 *102:33 0
16 *91:24 *102:33 7.72536e-05
17 *92:10 *102:12 0.000224345
18 *99:39 *102:33 3.40499e-05
*RES
1 *275:X *102:8 27.4536 
2 *102:8 *102:12 18.6664 
3 *102:12 *208:A1 39.0979 
4 *102:12 *102:33 37.1347 
5 *102:33 *204:A0 23 
6 *102:8 *216:A1 23 
*END

*D_NET *103 0.00983216
*CONN
*I *225:A3 I *D sky130_fd_sc_hd__mux4_1
*I *203:A0 I *D sky130_fd_sc_hd__mux4_2
*I *202:A I *D sky130_fd_sc_hd__inv_2
*I *204:A1 I *D sky130_fd_sc_hd__mux2_1
*I *276:X O *D sky130_fd_sc_hd__buf_1
*CAP
1 *225:A3 0
2 *203:A0 0
3 *202:A 0.00030191
4 *204:A1 0
5 *276:X 0.000287935
6 *103:85 1.59514e-05
7 *103:79 0.000771361
8 *103:64 0.000226916
9 *103:45 0.000658368
10 *103:43 0.00155433
11 *103:26 0.00142337
12 *103:18 0.00104192
13 *103:43 *104:33 5.21154e-05
14 *103:43 *104:52 0.000191416
15 *103:43 *108:14 0.000414077
16 *103:64 *104:33 9.28078e-06
17 *103:85 *109:12 6.48142e-05
18 *204:S *103:26 5.65874e-05
19 *209:A *103:43 0.000131562
20 *221:S1 *103:45 5.3304e-05
21 *221:S1 *103:79 0.00046447
22 *223:A1 *202:A 9.62764e-05
23 *223:A2 *103:43 8.34806e-05
24 *223:A2 *103:64 8.30566e-06
25 *223:A3 *202:A 1.46594e-05
26 *223:A3 *103:45 3.44001e-05
27 *225:A2 *103:79 3.37192e-05
28 *225:S0 *103:79 1.59094e-05
29 *236:CLK *103:26 8.90928e-05
30 *9:21 *103:18 0.000261993
31 *17:17 *103:18 3.80082e-05
32 *19:15 *103:79 0.000132711
33 *31:14 *103:85 6.48142e-05
34 *34:25 *103:43 0.000139352
35 *38:21 *103:43 0
36 *39:10 *103:43 0.000109739
37 *43:10 *103:43 1.47563e-05
38 *44:20 *103:43 5.72853e-05
39 *46:10 *103:64 8.42746e-05
40 *57:26 *103:18 0.000274007
41 *69:33 *103:43 3.33082e-05
42 *84:22 *103:43 7.70971e-05
43 *86:20 *103:79 0.000288391
44 *91:24 *103:64 0.000160893
*RES
1 *276:X *103:18 44.6493 
2 *103:18 *103:26 24.2386 
3 *103:26 *204:A1 23 
4 *103:26 *103:43 44.3757 
5 *103:43 *103:45 1.57429 
6 *103:45 *202:A 27.205 
7 *103:45 *103:64 33.7286 
8 *103:64 *203:A0 23 
9 *103:43 *103:79 41.9314 
10 *103:79 *103:85 30.8493 
11 *103:85 *225:A3 23 
*END

*D_NET *104 0.0106834
*CONN
*I *200:A I *D sky130_fd_sc_hd__inv_2
*I *231:A I *D sky130_fd_sc_hd__nand2_1
*I *221:A3 I *D sky130_fd_sc_hd__mux4_1
*I *203:A2 I *D sky130_fd_sc_hd__mux4_2
*I *277:X O *D sky130_fd_sc_hd__buf_1
*CAP
1 *200:A 0.000539576
2 *231:A 0
3 *221:A3 0
4 *203:A2 0
5 *277:X 0.000284162
6 *104:60 0.000231137
7 *104:52 0.00140975
8 *104:41 0.00048795
9 *104:33 0.00186013
10 *104:14 0.000890313
11 *104:10 0.000441333
12 *200:A *232:A2 3.22879e-05
13 *200:A *109:12 9.94883e-05
14 *104:10 *106:14 0.00015207
15 *231:B *104:60 1.37349e-05
16 *234:D *200:A 0.000119319
17 *237:CLK *104:10 0.000129284
18 *238:CLK *104:10 1.85916e-05
19 *255:D *104:41 8.1228e-05
20 *260:A *200:A 0.000181098
21 *260:A *104:60 0.000135037
22 *264:A *200:A 6.18328e-05
23 *19:15 *104:41 5.05236e-05
24 *44:69 *104:52 2.17749e-05
25 *46:10 *104:52 7.31043e-06
26 *53:10 *200:A 0.000273324
27 *69:10 *104:52 0
28 *69:22 *104:52 0.00013139
29 *69:33 *104:52 7.91574e-05
30 *80:20 *104:52 4.7869e-05
31 *81:18 *104:33 0.000344596
32 *81:18 *104:41 0.000355115
33 *82:34 *104:52 0.000687946
34 *84:22 *104:33 4.36457e-05
35 *84:22 *104:52 0.000127143
36 *84:33 *104:52 0.000185228
37 *86:12 *200:A 0.0001235
38 *86:20 *104:41 0.000127143
39 *91:10 *104:60 0.000268221
40 *91:24 *104:33 4.56255e-05
41 *94:22 *104:52 0
42 *99:8 *104:14 3.82058e-06
43 *99:12 *104:10 7.68979e-05
44 *100:14 *104:60 0.000241365
45 *100:18 *104:60 1.01436e-05
46 *101:21 *104:10 1.05441e-05
47 *103:43 *104:33 5.21154e-05
48 *103:43 *104:52 0.000191416
49 *103:64 *104:33 9.28078e-06
*RES
1 *277:X *104:10 42.5364 
2 *104:10 *104:14 16.5743 
3 *104:14 *203:A2 23 
4 *104:14 *104:33 38.1316 
5 *104:33 *104:41 37.2914 
6 *104:41 *221:A3 38 
7 *104:33 *104:52 30.2871 
8 *104:52 *104:60 35.2407 
9 *104:60 *231:A 23 
10 *104:52 *200:A 35.7393 
*END

*D_NET *105 0.00739267
*CONN
*I *232:B1 I *D sky130_fd_sc_hd__a21oi_1
*I *261:A I *D sky130_fd_sc_hd__clkbuf_1
*I *201:A I *D sky130_fd_sc_hd__inv_2
*I *278:X O *D sky130_fd_sc_hd__buf_1
*CAP
1 *232:B1 0
2 *261:A 0
3 *201:A 0.000171325
4 *278:X 2.38153e-05
5 *105:47 0.000329093
6 *105:37 0.00121919
7 *105:25 0.00100819
8 *105:23 0.000739232
9 *105:6 0.000816282
10 shift_clk_out *105:37 5.14746e-06
11 *233:A2_N *105:37 5.50049e-05
12 *259:D *105:47 0.00015818
13 *262:A *201:A 1.61361e-05
14 *262:A *105:23 2.94211e-05
15 *263:A *105:37 0.000123239
16 *263:A *105:47 6.35704e-05
17 *294:A *105:47 9.84851e-05
18 *15:19 *201:A 9.67842e-05
19 *15:19 *105:23 0
20 *31:14 *105:37 4.39488e-05
21 *54:8 *105:37 1.46455e-05
22 *56:10 *105:47 7.15126e-05
23 *74:29 *105:23 0.000926788
24 *85:26 *105:47 0.000212166
25 *90:8 *105:23 0.000171906
26 *93:8 *105:23 5.67058e-05
27 *93:14 *105:23 0.000530899
28 *93:14 *105:37 0.000141227
29 *94:10 *105:47 0.000269775
*RES
1 *278:X *105:6 23.4971 
2 *105:6 *201:A 25.5479 
3 *105:6 *105:23 49.0986 
4 *105:23 *105:25 1.57429 
5 *105:25 *105:37 41.8693 
6 *105:37 *105:47 39.1971 
7 *105:47 *261:A 23 
8 *105:25 *232:B1 23 
*END

*D_NET *106 0.00289827
*CONN
*I *269:A I *D sky130_fd_sc_hd__clkbuf_2
*I *279:X O *D sky130_fd_sc_hd__clkbuf_1
*CAP
1 *269:A 0
2 *279:X 8.40509e-05
3 *106:14 0.000831482
4 *106:8 0.000915533
5 *215:A1 *106:14 0.000129504
6 *267:A *106:14 5.3304e-05
7 *92:10 *106:14 0.000169674
8 *99:8 *106:14 1.59094e-05
9 *99:12 *106:14 4.36603e-05
10 *99:14 *106:14 0.000157309
11 *99:24 *106:14 0.0002499
12 *102:8 *106:8 9.5877e-05
13 *104:10 *106:14 0.00015207
*RES
1 *279:X *106:8 39.0979 
2 *106:8 *106:14 29.1479 
3 *106:14 *269:A 23 
*END

*D_NET *107 0.00529249
*CONN
*I *235:D I *D sky130_fd_sc_hd__dfxtp_1
*I *280:X O *D sky130_fd_sc_hd__clkbuf_1
*CAP
1 *235:D 0
2 *280:X 0.000937585
3 *107:26 0.000740766
4 *107:14 0.00167835
5 *107:26 *108:22 0.000180358
6 *203:S0 *107:26 3.52472e-05
7 *217:S *107:26 0.000262829
8 *224:A0 *107:14 1.24376e-05
9 *235:CLK *107:26 0.000128786
10 *250:D *107:26 0.000217595
11 *19:15 *107:14 8.06804e-06
12 *60:18 *107:26 3.94693e-05
13 *83:12 *107:26 6.6663e-06
14 *83:18 *107:26 0.00061849
15 *86:20 *107:14 2.05503e-05
16 *91:24 *107:26 0
17 *100:59 *107:26 2.46345e-05
18 *100:61 *107:26 0.000185104
19 *100:65 *107:26 0.000187977
20 *101:45 *107:14 7.57281e-06
21 *102:33 *107:14 0
*RES
1 *280:X *107:14 48.8876 
2 *107:14 *107:26 41.6532 
3 *107:26 *235:D 23 
*END

*D_NET *108 0.00817402
*CONN
*I *203:A1 I *D sky130_fd_sc_hd__mux4_2
*I *219:A1 I *D sky130_fd_sc_hd__mux2_1
*I *281:X O *D sky130_fd_sc_hd__clkbuf_1
*CAP
1 *203:A1 0
2 *219:A1 0
3 *281:X 0.000778194
4 *108:22 0.000421957
5 *108:14 0.00133354
6 *108:8 0.00168977
7 *206:A_N *108:14 0.000383925
8 *207:A0 *108:14 4.60263e-05
9 *209:A *108:14 1.17049e-05
10 *230:A1 *108:14 0.00021673
11 *240:CLK *108:8 0.000353731
12 *242:CLK *108:8 0.000360277
13 *242:D *108:14 0.000142535
14 *272:A *108:14 0
15 *273:A *108:14 0
16 *274:A *108:8 2.87815e-05
17 *34:8 *108:14 0.000117244
18 *38:10 *108:14 0.000274562
19 *38:21 *108:14 4.73689e-05
20 *44:34 *108:14 0.000349687
21 *44:77 *108:22 6.17437e-06
22 *44:83 *108:22 5.94125e-05
23 *62:10 *108:14 0
24 *65:29 *108:14 0
25 *81:18 *108:14 0.000224605
26 *83:37 *108:22 5.3304e-05
27 *84:16 *108:14 0
28 *91:24 *108:14 0.00026352
29 *91:24 *108:22 0.000214781
30 *92:10 *108:8 5.85822e-06
31 *100:61 *108:22 1.01436e-05
32 *100:65 *108:22 0.000185755
33 *103:43 *108:14 0.000414077
34 *107:26 *108:22 0.000180358
*RES
1 *281:X *108:8 49.1029 
2 *108:8 *108:14 38.4486 
3 *108:14 *108:22 38.8657 
4 *108:22 *219:A1 23 
5 *108:14 *203:A1 23 
*END

*D_NET *109 0.0109079
*CONN
*I *232:A2 I *D sky130_fd_sc_hd__a21oi_1
*I *225:A1 I *D sky130_fd_sc_hd__mux4_1
*I *218:A0 I *D sky130_fd_sc_hd__mux2_1
*I *220:A0 I *D sky130_fd_sc_hd__mux2_1
*I *221:A2 I *D sky130_fd_sc_hd__mux4_1
*I *234:Q O *D sky130_fd_sc_hd__dfxtp_1
*CAP
1 *232:A2 0.000221384
2 *225:A1 0
3 *218:A0 0
4 *220:A0 0
5 *221:A2 0.000173596
6 *234:Q 0
7 *109:71 8.42445e-05
8 *109:55 0.000432333
9 *109:45 0.00142317
10 *109:31 0.00143071
11 *109:12 0.00124357
12 *109:4 0.000935731
13 *200:A *232:A2 3.22879e-05
14 *200:A *109:12 9.94883e-05
15 *217:A1 *109:45 5.3304e-05
16 *217:S *109:45 5.50049e-05
17 *218:S *109:45 0.000396993
18 *220:S *109:55 9.41704e-05
19 *221:S1 *221:A2 3.28708e-05
20 *254:D *109:45 0.000140991
21 *256:CLK *109:31 0.000114856
22 *256:CLK *109:45 0.000153446
23 *256:D *109:31 2.84462e-05
24 *17:17 *109:55 0.00080494
25 *30:8 *232:A2 5.02598e-05
26 *31:14 *109:12 0.000256922
27 *47:8 *221:A2 1.6318e-05
28 *53:10 *232:A2 7.43025e-06
29 *69:10 *109:71 3.70187e-05
30 *69:22 *109:45 0.000137651
31 *70:12 *109:71 0.000131997
32 *74:12 *109:12 8.62783e-05
33 *82:24 *221:A2 0.00028326
34 *82:24 *109:12 2.05503e-05
35 *82:34 *109:55 5.3304e-05
36 *84:49 *109:45 0.000178253
37 *84:64 *221:A2 9.92347e-05
38 *84:64 *109:12 0.000407288
39 *85:26 *109:71 3.99932e-05
40 *86:12 *109:12 8.90246e-05
41 *86:20 *221:A2 0.000121389
42 *95:10 *109:45 2.03764e-06
43 *95:10 *109:55 6.74969e-06
44 *96:12 *109:55 0.000807172
45 *101:98 *109:45 5.94125e-05
46 *103:85 *109:12 6.48142e-05
*RES
1 *234:Q *109:4 23 
2 *109:4 *109:12 29.1064 
3 *109:12 *221:A2 43.1682 
4 *109:12 *109:31 19.4329 
5 *109:31 *109:45 45.4736 
6 *109:45 *109:55 43.3814 
7 *109:55 *220:A0 23 
8 *109:45 *218:A0 23 
9 *109:31 *109:71 31.9057 
10 *109:71 *225:A1 23 
11 *109:4 *232:A2 26.3764 
*END
