*SPEF "ieee 1481-1999"
*DESIGN "CLB"
*DATE "14:43:11 Saturday October 03, 2026"
*VENDOR "The OpenROAD Project"
*PROGRAM "OpenROAD"
*VERSION "edf00dff99f6c40d67a30c0e22a8191c5d2ed9d6"
*DESIGN_FLOW "NAME_SCOPE LOCAL" "PIN_CAP NONE"
*DIVIDER /
*DELIMITER :
*BUS_DELIMITER []
*T_UNIT 1 NS
*C_UNIT 1 PF
*R_UNIT 1 OHM
*L_UNIT 1 HENRY

*NAME_MAP
*3 carry_in
*4 carry_out
*5 clk
*6 clk_out
*7 horz_bus_in[0]
*8 horz_bus_in[1]
*9 horz_bus_in[2]
*10 horz_bus_in[3]
*11 horz_bus_out[0]
*12 horz_bus_out[1]
*13 horz_bus_out[2]
*14 horz_bus_out[3]
*15 reset
*16 reset_out
*17 shift_clk
*18 shift_clk_out
*19 shift_data_in
*20 shift_data_out
*21 vert_bus_in[0]
*22 vert_bus_in[1]
*23 vert_bus_in[2]
*24 vert_bus_in[3]
*25 vert_bus_out[0]
*26 vert_bus_out[1]
*27 vert_bus_out[2]
*28 vert_bus_out[3]
*29 _00_
*30 _01_
*31 _02_
*32 _03_
*33 _04_
*34 _05_
*35 _06_
*36 _07_
*37 _08_
*38 _09_
*39 _10_
*40 _11_
*41 _12_
*42 _13_
*43 _14_
*44 _15_
*45 _16_
*46 _17_
*47 _18_
*48 _19_
*49 _20_
*50 _21_
*51 _22_
*52 _23_
*53 _24_
*54 clknet_0_clk
*55 clknet_1_0__leaf_clk
*56 clknet_1_1__leaf_clk
*57 input_mux_a_sel
*58 input_mux_b_sel
*59 input_mux_c_sel\[0\]
*60 input_mux_c_sel\[1\]
*61 lut\[0\]
*62 lut\[1\]
*63 lut\[2\]
*64 lut\[3\]
*65 lut\[4\]
*66 lut\[5\]
*67 lut\[6\]
*68 lut\[7\]
*69 major_horz2_sel\[0\]
*70 major_horz2_sel\[1\]
*71 major_horz2_sel\[2\]
*72 major_horz3_sel\[0\]
*73 major_horz3_sel\[1\]
*74 major_horz3_sel\[2\]
*75 minor_horz_sel\[0\]
*76 minor_horz_sel\[1\]
*77 minor_vert_sel\[0\]
*78 minor_vert_sel\[1\]
*79 minor_vert_sel\[2\]
*80 minor_vert_sel\[3\]
*81 net1
*82 net10
*83 net11
*84 net12
*85 net13
*86 net14
*87 net15
*88 net16
*89 net17
*90 net18
*91 net19
*92 net2
*93 net20
*94 net21
*95 net22
*96 net23
*97 net24
*98 net25
*99 net26
*100 net27
*101 net28
*102 net3
*103 net4
*104 net5
*105 net6
*106 net7
*107 net8
*108 net9
*109 operation_ff
*110 FILLER_0_26
*111 FILLER_0_3
*112 FILLER_0_51
*113 FILLER_0_57
*114 FILLER_10_21
*115 FILLER_10_27
*116 FILLER_10_29
*117 FILLER_10_3
*118 FILLER_10_64
*119 FILLER_11_19
*120 FILLER_12_26
*121 FILLER_12_3
*122 FILLER_12_47
*123 FILLER_13_3
*124 FILLER_14_26
*125 FILLER_15_63
*126 FILLER_1_51
*127 FILLER_1_55
*128 FILLER_1_57
*129 FILLER_2_3
*130 FILLER_2_32
*131 FILLER_2_7
*132 FILLER_3_11
*133 FILLER_3_21
*134 FILLER_3_3
*135 FILLER_3_57
*136 FILLER_3_7
*137 FILLER_4_29
*138 FILLER_4_40
*139 FILLER_4_44
*140 FILLER_4_61
*141 FILLER_5_53
*142 FILLER_5_57
*143 FILLER_7_11
*144 FILLER_7_3
*145 FILLER_7_55
*146 FILLER_7_63
*147 FILLER_7_7
*148 FILLER_8_25
*149 FILLER_8_29
*150 FILLER_8_53
*151 FILLER_8_63
*152 FILLER_8_7
*153 FILLER_9_3
*154 FILLER_9_7
*155 PHY_EDGE_ROW_0_Left_16
*156 PHY_EDGE_ROW_0_Right_0
*157 PHY_EDGE_ROW_10_Left_26
*158 PHY_EDGE_ROW_10_Right_10
*159 PHY_EDGE_ROW_11_Left_27
*160 PHY_EDGE_ROW_11_Right_11
*161 PHY_EDGE_ROW_12_Left_28
*162 PHY_EDGE_ROW_12_Right_12
*163 PHY_EDGE_ROW_13_Left_29
*164 PHY_EDGE_ROW_13_Right_13
*165 PHY_EDGE_ROW_14_Left_30
*166 PHY_EDGE_ROW_14_Right_14
*167 PHY_EDGE_ROW_15_Left_31
*168 PHY_EDGE_ROW_15_Right_15
*169 PHY_EDGE_ROW_1_Left_17
*170 PHY_EDGE_ROW_1_Right_1
*171 PHY_EDGE_ROW_2_Left_18
*172 PHY_EDGE_ROW_2_Right_2
*173 PHY_EDGE_ROW_3_Left_19
*174 PHY_EDGE_ROW_3_Right_3
*175 PHY_EDGE_ROW_4_Left_20
*176 PHY_EDGE_ROW_4_Right_4
*177 PHY_EDGE_ROW_5_Left_21
*178 PHY_EDGE_ROW_5_Right_5
*179 PHY_EDGE_ROW_6_Left_22
*180 PHY_EDGE_ROW_6_Right_6
*181 PHY_EDGE_ROW_7_Left_23
*182 PHY_EDGE_ROW_7_Right_7
*183 PHY_EDGE_ROW_8_Left_24
*184 PHY_EDGE_ROW_8_Right_8
*185 PHY_EDGE_ROW_9_Left_25
*186 PHY_EDGE_ROW_9_Right_9
*187 TAP_TAPCELL_ROW_0_32
*188 TAP_TAPCELL_ROW_0_33
*189 TAP_TAPCELL_ROW_10_43
*190 TAP_TAPCELL_ROW_11_44
*191 TAP_TAPCELL_ROW_12_45
*192 TAP_TAPCELL_ROW_13_46
*193 TAP_TAPCELL_ROW_14_47
*194 TAP_TAPCELL_ROW_15_48
*195 TAP_TAPCELL_ROW_15_49
*196 TAP_TAPCELL_ROW_1_34
*197 TAP_TAPCELL_ROW_2_35
*198 TAP_TAPCELL_ROW_3_36
*199 TAP_TAPCELL_ROW_4_37
*200 TAP_TAPCELL_ROW_5_38
*201 TAP_TAPCELL_ROW_6_39
*202 TAP_TAPCELL_ROW_7_40
*203 TAP_TAPCELL_ROW_8_41
*204 TAP_TAPCELL_ROW_9_42
*205 _25_
*206 _26_
*207 _27_
*208 _28_
*209 _29_
*210 _30_
*211 _31_
*212 _32_
*213 _33_
*214 _34_
*215 _35_
*216 _36_
*217 _37_
*218 _38_
*219 _39_
*220 _40_
*221 _41_
*222 _42_
*223 _43_
*224 _44_
*225 _45_
*226 _46_
*227 _47_
*228 _48_
*229 _49_
*230 _50_
*231 _51_
*232 _52_
*233 _53_
*234 _54_
*235 _55_
*236 _56_
*237 _57_
*238 _58_
*239 _59_
*240 _60_
*241 _61_
*242 _62_
*243 _63_
*244 _64_
*245 _65_
*246 _66_
*247 _67_
*248 _68_
*249 _69_
*250 _70_
*251 _71_
*252 _72_
*253 _73_
*254 _74_
*255 _75_
*256 _76_
*257 _77_
*258 _78_
*259 _79_
*260 _80_
*261 _81_
*262 _82_
*263 _83_
*264 _84_
*265 _85_
*266 _86_
*267 _87_
*268 clkbuf_0_clk
*269 clkbuf_1_0__f_clk
*270 clkbuf_1_1__f_clk
*271 clkload0
*272 fanout26
*273 fanout27
*274 fanout28
*275 input1
*276 input10
*277 input11
*278 input12
*279 input2
*280 input3
*281 input4
*282 input5
*283 input6
*284 input7
*285 input8
*286 input9
*287 output13
*288 output14
*289 output15
*290 output16
*291 output17
*292 output18
*293 output19
*294 output20
*295 output21
*296 output22
*297 output23
*298 output24
*299 output25

*PORTS
carry_in I
carry_out O
clk I
clk_out O
horz_bus_in[0] I
horz_bus_in[1] I
horz_bus_in[2] I
horz_bus_in[3] I
horz_bus_out[0] O
horz_bus_out[1] O
horz_bus_out[2] O
horz_bus_out[3] O
reset I
reset_out O
shift_clk I
shift_clk_out O
shift_data_in I
shift_data_out O
vert_bus_in[0] I
vert_bus_in[1] I
vert_bus_in[2] I
vert_bus_in[3] I
vert_bus_out[0] O
vert_bus_out[1] O
vert_bus_out[2] O
vert_bus_out[3] O

*D_NET *3 0.00024377
*CONN
*P carry_in I
*I *275:A I *D sky130_fd_sc_hd__clkbuf_1
*CAP
1 carry_in 0.000105685
2 *275:A 0.000105685
3 *275:A *293:A 2.19778e-05
4 *275:A *87:16 1.04232e-05
*RES
1 carry_in *275:A 15.3536 
*END

*D_NET *4 0.00291786
*CONN
*P carry_out O
*I *287:X O *D sky130_fd_sc_hd__buf_2
*CAP
1 carry_out 0.000501937
2 *287:X 0.000501937
3 carry_out horz_bus_out[3] 3.06878e-06
4 carry_out shift_clk_out 0.000925947
5 carry_out *230:S1 7.43174e-05
6 carry_out *233:A0 4.95409e-05
7 carry_out *283:A 4.19577e-05
8 carry_out *30:14 7.6644e-05
9 carry_out *56:12 7.82357e-05
10 carry_out *93:16 0.000664277
*RES
1 *287:X carry_out 29.4607 
*END

*D_NET *5 0.000629848
*CONN
*P clk I
*I *268:A I *D sky130_fd_sc_hd__clkbuf_16
*CAP
1 clk 0.000171113
2 *268:A 0.000171113
3 *268:A *206:A 0.000144773
4 *268:A *265:A 0.00014285
5 *268:A *299:A 0
*RES
1 clk *268:A 16.7286 
*END

*D_NET *6 0.000728212
*CONN
*P clk_out O
*I *288:X O *D sky130_fd_sc_hd__buf_1
*CAP
1 clk_out 0.000170697
2 *288:X 0.000170697
3 clk_out *288:A 0.000263524
4 clk_out *64:12 6.07866e-05
5 clk_out *84:24 6.25085e-05
*RES
1 *288:X clk_out 17.2107 
*END

*D_NET *7 0.00161253
*CONN
*P horz_bus_in[0] I
*I *279:A I *D sky130_fd_sc_hd__clkbuf_1
*CAP
1 horz_bus_in[0] 0.000633163
2 *279:A 0.000633163
3 *279:A *244:D 0.000148911
4 *279:A *245:CLK 0
5 *279:A *286:A 2.14884e-05
6 *279:A *82:20 8.5662e-05
7 *279:A *108:22 9.0145e-05
*RES
1 horz_bus_in[0] *279:A 24.9737 
*END

*D_NET *8 0.00073088
*CONN
*P horz_bus_in[1] I
*I *280:A I *D sky130_fd_sc_hd__clkbuf_1
*CAP
1 horz_bus_in[1] 0.00034844
2 *280:A 0.00034844
3 *280:A *221:S 2.11419e-05
4 *280:A *281:A 0
5 *280:A *99:22 1.28585e-05
*RES
1 horz_bus_in[1] *280:A 18.4519 
*END

*D_NET *9 0.00141332
*CONN
*P horz_bus_in[2] I
*I *281:A I *D sky130_fd_sc_hd__buf_1
*CAP
1 horz_bus_in[2] 0.000526653
2 *281:A 0.000526653
3 *281:A *208:S0 5.33005e-05
4 *281:A *244:D 0.000202426
5 *281:A *59:14 4.58194e-05
6 *281:A *60:10 2.95642e-05
7 *281:A *103:16 2.89016e-05
8 *280:A *281:A 0
*RES
1 horz_bus_in[2] *281:A 22.8017 
*END

*D_NET *10 0.000708989
*CONN
*P horz_bus_in[3] I
*I *282:A I *D sky130_fd_sc_hd__buf_1
*CAP
1 horz_bus_in[3] 0.000317558
2 *282:A 0.000317558
3 *282:A *285:A 0
4 *282:A *82:20 2.46553e-05
5 *282:A *104:8 4.92174e-05
*RES
1 horz_bus_in[3] *282:A 20.4201 
*END

*D_NET *11 0.000541894
*CONN
*P horz_bus_out[0] O
*I *289:X O *D sky130_fd_sc_hd__buf_2
*CAP
1 horz_bus_out[0] 0.000221425
2 *289:X 0.000221425
3 horz_bus_out[0] *87:16 9.90431e-05
*RES
1 *289:X horz_bus_out[0] 19.3862 
*END

*D_NET *12 0.000510224
*CONN
*P horz_bus_out[1] O
*I *290:X O *D sky130_fd_sc_hd__buf_2
*CAP
1 horz_bus_out[1] 0.000230651
2 *290:X 0.000230651
3 horz_bus_out[1] *290:A 3.67257e-05
4 horz_bus_out[1] *293:A 1.21955e-05
*RES
1 *290:X horz_bus_out[1] 19.3862 
*END

*D_NET *13 0.0006116
*CONN
*P horz_bus_out[2] O
*I *291:X O *D sky130_fd_sc_hd__buf_2
*CAP
1 horz_bus_out[2] 0.000291462
2 *291:X 0.000291462
3 horz_bus_out[2] *291:A 2.86754e-05
*RES
1 *291:X horz_bus_out[2] 19.9934 
*END

*D_NET *14 0.000559578
*CONN
*P horz_bus_out[3] O
*I *292:X O *D sky130_fd_sc_hd__buf_2
*CAP
1 horz_bus_out[3] 0.000248457
2 *292:X 0.000248457
3 horz_bus_out[3] *230:S1 2.83051e-05
4 horz_bus_out[3] *231:A1 0
5 horz_bus_out[3] *233:A0 1.21955e-05
6 horz_bus_out[3] *292:A 1.90936e-05
7 carry_out horz_bus_out[3] 3.06878e-06
*RES
1 *292:X horz_bus_out[3] 19.5112 
*END

*D_NET *15 0.00443092
*CONN
*P reset I
*I *283:A I *D sky130_fd_sc_hd__buf_1
*CAP
1 reset 0.00133463
2 *283:A 0.00133463
3 *283:A shift_clk_out 8.71178e-05
4 *283:A shift_data_out 1.86268e-05
5 *283:A *231:A1 0
6 *283:A *238:B2 7.83659e-05
7 *283:A *269:A 0.00010705
8 *283:A *295:A 0.000246049
9 *283:A *30:14 0.000235191
10 *283:A *54:8 8.16036e-05
11 *283:A *105:10 0.000582512
12 *283:A *105:25 0.000283187
13 carry_out *283:A 4.19577e-05
*RES
1 reset *283:A 42.7818 
*END

*D_NET *16 0.000291269
*CONN
*P reset_out O
*I *293:X O *D sky130_fd_sc_hd__buf_2
*CAP
1 reset_out 0.000127277
2 *293:X 0.000127277
3 reset_out *87:16 3.67142e-05
*RES
1 *293:X reset_out 15.5679 
*END

*D_NET *17 0.00159248
*CONN
*P shift_clk I
*I *284:A I *D sky130_fd_sc_hd__clkbuf_1
*CAP
1 shift_clk 0.000574216
2 *284:A 0.000574216
3 *284:A *274:A 3.36333e-05
4 *284:A *82:20 1.24381e-05
5 *284:A *100:10 0.00022287
6 *284:A *100:14 0.000175103
*RES
1 shift_clk *284:A 23.6588 
*END

*D_NET *18 0.00272427
*CONN
*P shift_clk_out O
*I *294:X O *D sky130_fd_sc_hd__buf_2
*CAP
1 shift_clk_out 0.000602
2 *294:X 0.000602
3 shift_clk_out *238:B1 0.000187893
4 shift_clk_out *238:B2 6.98302e-05
5 shift_clk_out *295:A 0.000249479
6 carry_out shift_clk_out 0.000925947
7 *283:A shift_clk_out 8.71178e-05
*RES
1 *294:X shift_clk_out 29.8434 
*END

*D_NET *19 0.00144243
*CONN
*P shift_data_in I
*I *285:A I *D sky130_fd_sc_hd__clkbuf_1
*CAP
1 shift_data_in 0.000503038
2 *285:A 0.000503038
3 *285:A *225:A1 9.33462e-05
4 *285:A *255:D 0.00011258
5 *285:A *82:20 0.000137315
6 *285:A *100:22 9.3111e-05
7 *282:A *285:A 0
*RES
1 shift_data_in *285:A 22.0001 
*END

*D_NET *20 0.00100661
*CONN
*P shift_data_out O
*I *295:X O *D sky130_fd_sc_hd__buf_2
*CAP
1 shift_data_out 0.00023291
2 *295:X 0.00023291
3 shift_data_out *231:A1 6.37327e-05
4 shift_data_out *231:A2 0.000114485
5 shift_data_out *231:B1 9.41642e-05
6 shift_data_out *232:B1 9.60875e-05
7 shift_data_out *238:A2_N 0.000153691
8 *283:A shift_data_out 1.86268e-05
*RES
1 *295:X shift_data_out 21.2797 
*END

*D_NET *21 0.000253237
*CONN
*P vert_bus_in[0] I
*I *286:A I *D sky130_fd_sc_hd__clkbuf_1
*CAP
1 vert_bus_in[0] 0.000101424
2 *286:A 0.000101424
3 *286:A *245:CLK 2.89016e-05
4 *279:A *286:A 2.14884e-05
*RES
1 vert_bus_in[0] *286:A 16.1214 
*END

*D_NET *22 0.000910477
*CONN
*P vert_bus_in[1] I
*I *276:A I *D sky130_fd_sc_hd__clkbuf_1
*CAP
1 vert_bus_in[1] 0.000375274
2 *276:A 0.000375274
3 *276:A *245:CLK 5.01407e-05
4 *276:A *245:D 0.000109789
*RES
1 vert_bus_in[1] *276:A 20.3893 
*END

*D_NET *23 0.00114607
*CONN
*P vert_bus_in[2] I
*I *277:A I *D sky130_fd_sc_hd__buf_1
*CAP
1 vert_bus_in[2] 0.000257111
2 *277:A 0.000257111
3 *277:A *211:A_N 5.52302e-05
4 *277:A *212:A0 0.00022459
5 *277:A *212:A1 3.92854e-05
6 *277:A *212:S 8.86413e-05
7 *277:A *87:16 0.000207188
8 *277:A *108:22 1.69115e-05
*RES
1 vert_bus_in[2] *277:A 21.05 
*END

*D_NET *24 0.00111339
*CONN
*P vert_bus_in[3] I
*I *278:A I *D sky130_fd_sc_hd__buf_1
*CAP
1 vert_bus_in[3] 0.000205253
2 *278:A 0.000205253
3 *278:A *247:D 7.75637e-05
4 *278:A *288:A 0.000223558
5 *278:A *84:24 0
6 *278:A *87:16 0.000401764
*RES
1 vert_bus_in[3] *278:A 20.7821 
*END

*D_NET *25 0.0007579
*CONN
*P vert_bus_out[0] O
*I *296:X O *D sky130_fd_sc_hd__buf_2
*CAP
1 vert_bus_out[0] 0.000199292
2 *296:X 0.000199292
3 vert_bus_out[0] *274:A 0.000181368
4 vert_bus_out[0] *101:10 0.000177948
*RES
1 *296:X vert_bus_out[0] 18.8 
*END

*D_NET *26 0.000636596
*CONN
*P vert_bus_out[1] O
*I *297:X O *D sky130_fd_sc_hd__buf_2
*CAP
1 vert_bus_out[1] 0.00028645
2 *297:X 0.00028645
3 vert_bus_out[1] *265:A 1.33343e-05
4 vert_bus_out[1] *297:A 5.03616e-05
*RES
1 *297:X vert_bus_out[1] 17.1393 
*END

*D_NET *27 0.000797833
*CONN
*P vert_bus_out[2] O
*I *298:X O *D sky130_fd_sc_hd__buf_2
*CAP
1 vert_bus_out[2] 0.000288612
2 *298:X 0.000288612
3 vert_bus_out[2] *265:A 0.000220608
*RES
1 *298:X vert_bus_out[2] 17.55 
*END

*D_NET *28 9.21168e-05
*CONN
*P vert_bus_out[3] O
*I *299:X O *D sky130_fd_sc_hd__buf_2
*CAP
1 vert_bus_out[3] 4.60584e-05
2 *299:X 4.60584e-05
*RES
1 *299:X vert_bus_out[3] 14.55 
*END

*D_NET *29 0.00167185
*CONN
*I *239:D I *D sky130_fd_sc_hd__dfxtp_1
*I *238:X O *D sky130_fd_sc_hd__o2bb2a_1
*CAP
1 *239:D 0.000382747
2 *238:X 0.000382747
3 *239:D *238:A2_N 5.80706e-06
4 *239:D *270:A 0.000216755
5 *239:D *93:16 0.000683797
*RES
1 *238:X *239:D 35.4973 
*END

*D_NET *30 0.00228958
*CONN
*I *237:A1 I *D sky130_fd_sc_hd__a21oi_1
*I *232:A1 I *D sky130_fd_sc_hd__a31oi_1
*I *205:Y O *D sky130_fd_sc_hd__inv_2
*CAP
1 *237:A1 0
2 *232:A1 0.000218569
3 *205:Y 0.000547337
4 *30:14 0.000765906
5 *232:A1 *232:A3 7.00169e-06
6 *232:A1 *232:B1 5.80004e-05
7 *232:A1 *233:A0 5.74499e-06
8 *232:A1 *237:A2 2.59355e-05
9 *232:A1 *72:18 1.3701e-05
10 *30:14 *230:S1 1.01417e-05
11 *30:14 *233:A0 8.25843e-06
12 *30:14 *237:A2 6.05161e-06
13 *30:14 *237:B1 0.0001399
14 *30:14 *292:A 0.000150618
15 *30:14 *105:10 2.05823e-05
16 carry_out *30:14 7.6644e-05
17 *283:A *30:14 0.000235191
*RES
1 *205:Y *30:14 28.1393 
2 *30:14 *232:A1 12.1036 
3 *30:14 *237:A1 9.3 
*END

*D_NET *31 0.0030628
*CONN
*I *238:B1 I *D sky130_fd_sc_hd__o2bb2a_1
*I *206:Y O *D sky130_fd_sc_hd__inv_2
*CAP
1 *238:B1 0.000995946
2 *206:Y 0.000995946
3 *238:B1 *206:A 0.000621848
4 *238:B1 *223:A1 5.52238e-05
5 *238:B1 *265:A 0.000192879
6 *238:B1 *56:12 1.30607e-05
7 shift_clk_out *238:B1 0.000187893
*RES
1 *206:Y *238:B1 46.0643 
*END

*D_NET *32 0.000362592
*CONN
*I *228:A1 I *D sky130_fd_sc_hd__a31oi_1
*I *207:Y O *D sky130_fd_sc_hd__inv_2
*CAP
1 *228:A1 6.49246e-05
2 *207:Y 6.49246e-05
3 *228:A1 *228:A2 0.000116371
4 *228:A1 *33:21 0.000116371
*RES
1 *207:Y *228:A1 29.2429 
*END

*D_NET *33 0.00548272
*CONN
*I *217:S I *D sky130_fd_sc_hd__mux2_1
*I *216:S I *D sky130_fd_sc_hd__mux2_1
*I *212:S I *D sky130_fd_sc_hd__mux2_1
*I *210:S I *D sky130_fd_sc_hd__mux2_1
*I *234:B1 I *D sky130_fd_sc_hd__o21a_1
*I *208:X O *D sky130_fd_sc_hd__mux4_2
*CAP
1 *217:S 8.60333e-05
2 *216:S 0
3 *212:S 0.000298034
4 *210:S 2.50272e-05
5 *234:B1 7.34819e-05
6 *208:X 3.17505e-05
7 *33:33 0.000457926
8 *33:31 0.000415302
9 *33:21 0.000760799
10 *33:6 0.000499561
11 *210:S *290:A 4.47339e-05
12 *212:S *210:A1 5.26277e-05
13 *212:S *211:A_N 0.000174748
14 *212:S *211:B 5.52302e-05
15 *212:S *212:A0 1.02821e-05
16 *212:S *81:22 0.000146474
17 *212:S *99:86 6.05161e-06
18 *217:S *215:B1 1.21258e-05
19 *217:S *217:A0 9.71197e-05
20 *217:S *217:A1 5.96516e-05
21 *217:S *219:A2 0.000260574
22 *234:B1 *234:A1 9.55684e-05
23 *234:B1 *103:40 0.000139913
24 *33:6 *224:A1 6.94399e-06
25 *33:6 *103:40 9.37026e-06
26 *33:21 *217:A1 5.83304e-05
27 *33:21 *228:A2 2.01602e-05
28 *33:21 *228:A3 0.00016059
29 *33:21 *234:A1 0.000220311
30 *33:21 *234:A2 9.39786e-05
31 *33:21 *235:B1 9.41642e-05
32 *33:21 *288:A 6.47912e-05
33 *33:21 *44:36 0
34 *33:21 *103:40 4.0001e-05
35 *33:31 *216:A0 0
36 *33:31 *217:A1 0.000123288
37 *33:31 *218:A1 6.42242e-05
38 *33:31 *250:CLK 5.33334e-05
39 *33:31 *288:A 0.00019638
40 *33:31 *290:A 4.88637e-05
41 *33:31 *44:14 0
42 *33:31 *44:36 0
43 *33:31 *83:18 0
44 *33:33 *250:CLK 6.86792e-05
45 *33:33 *290:A 0.000151279
46 *228:A1 *33:21 0.000116371
47 *277:A *212:S 8.86413e-05
*RES
1 *208:X *33:6 9.83571 
2 *33:6 *234:B1 11.3893 
3 *33:6 *33:21 13 
4 *33:21 *33:31 11.0893 
5 *33:31 *33:33 3 
6 *33:33 *210:S 9.83571 
7 *33:33 *212:S 24.4964 
8 *33:31 *216:S 9.3 
9 *33:21 *217:S 16.3893 
*END

*D_NET *34 0.00700684
*CONN
*I *235:A1 I *D sky130_fd_sc_hd__a21o_1
*I *234:A1 I *D sky130_fd_sc_hd__o21a_1
*I *215:A1 I *D sky130_fd_sc_hd__a21o_1
*I *218:S I *D sky130_fd_sc_hd__mux2_1
*I *211:A_N I *D sky130_fd_sc_hd__and2b_1
*I *209:X O *D sky130_fd_sc_hd__mux2_1
*CAP
1 *235:A1 0
2 *234:A1 0.000180905
3 *215:A1 0.000259501
4 *218:S 2.23854e-05
5 *211:A_N 0.000429254
6 *209:X 0.000168817
7 *34:55 0.000299215
8 *34:31 0.000537381
9 *34:12 0.000841126
10 *34:8 0.000443505
11 *211:A_N *211:B 5.83564e-05
12 *211:A_N *212:A0 2.28499e-05
13 *211:A_N *219:A1 9.60875e-05
14 *211:A_N *221:A0 3.92854e-05
15 *211:A_N *81:22 0
16 *211:A_N *87:16 0.000315187
17 *211:A_N *102:23 4.29272e-05
18 *211:A_N *108:22 0.000174228
19 *215:A1 *215:A2 3.4089e-05
20 *215:A1 *215:B1 0.000178847
21 *215:A1 *217:A0 0.000222239
22 *215:A1 *217:A1 0.000221634
23 *215:A1 *219:A2 2.05612e-05
24 *215:A1 *75:16 8.12154e-05
25 *215:A1 *84:24 9.44259e-05
26 *215:A1 *101:61 0.000139907
27 *218:S *101:61 0
28 *234:A1 *208:A3 0.000203342
29 *234:A1 *83:18 0.00020213
30 *234:A1 *103:40 6.0675e-05
31 *34:8 *209:A0 5.33005e-05
32 *34:8 *209:A1 5.52238e-05
33 *34:8 *209:S 0.000105569
34 *34:8 *242:CLK 3.2065e-05
35 *34:12 *208:A3 0
36 *34:12 *209:A0 0.000151333
37 *34:12 *235:A2 3.5707e-05
38 *34:12 *81:22 0
39 *34:12 *102:23 0.000124201
40 *34:12 *108:22 1.08359e-05
41 *34:31 *219:B1 5.52302e-05
42 *34:31 *75:16 0.000284047
43 *34:55 *209:A1 5.52302e-05
44 *34:55 *235:A2 5.33005e-05
45 *34:55 *261:CLK 1.21289e-05
46 *34:55 *85:28 4.27338e-05
47 *212:S *211:A_N 0.000174748
48 *234:B1 *234:A1 9.55684e-05
49 *277:A *211:A_N 5.52302e-05
50 *33:21 *234:A1 0.000220311
*RES
1 *209:X *34:8 12.3179 
2 *34:8 *34:12 8.57143 
3 *34:12 *211:A_N 24.6929 
4 *34:12 *34:31 9.55357 
5 *34:31 *218:S 9.72857 
6 *34:31 *215:A1 25.6214 
7 *34:8 *34:55 2.17857 
8 *34:55 *234:A1 23.3357 
9 *34:55 *235:A1 9.3 
*END

*D_NET *35 0.000736008
*CONN
*I *211:B I *D sky130_fd_sc_hd__and2b_1
*I *210:X O *D sky130_fd_sc_hd__mux2_1
*CAP
1 *211:B 0.00025906
2 *210:X 0.00025906
3 *211:B *219:A1 2.59355e-05
4 *211:B *108:22 7.83659e-05
5 *211:A_N *211:B 5.83564e-05
6 *212:S *211:B 5.52302e-05
*RES
1 *210:X *211:B 31.2429 
*END

*D_NET *36 0.00230618
*CONN
*I *219:A1 I *D sky130_fd_sc_hd__o22a_1
*I *211:X O *D sky130_fd_sc_hd__and2b_1
*CAP
1 *219:A1 0.000850593
2 *211:X 0.000850593
3 *219:A1 *210:A0 0.0001098
4 *219:A1 *213:A0 0.000246098
5 *219:A1 *213:A1 9.60875e-05
6 *219:A1 *219:B2 1.3701e-05
7 *219:A1 *38:6 1.72894e-05
8 *211:A_N *219:A1 9.60875e-05
9 *211:B *219:A1 2.59355e-05
*RES
1 *211:X *219:A1 41.1357 
*END

*D_NET *37 0.0039614
*CONN
*I *215:A2 I *D sky130_fd_sc_hd__a21o_1
*I *212:X O *D sky130_fd_sc_hd__mux2_1
*CAP
1 *215:A2 0.00138343
2 *212:X 0.00138343
3 *215:A2 *212:A0 0.000310292
4 *215:A2 *215:B1 3.02849e-05
5 *215:A2 *219:A2 0.000176841
6 *215:A2 *249:D 7.99677e-06
7 *215:A2 *252:CLK 5.56564e-05
8 *215:A2 *252:D 0.000462106
9 *215:A2 *66:14 1.03968e-05
10 *215:A2 *67:16 0.000100831
11 *215:A2 *91:16 6.05161e-06
12 *215:A1 *215:A2 3.4089e-05
*RES
1 *212:X *215:A2 48.0464 
*END

*D_NET *38 0.00355856
*CONN
*I *215:B1 I *D sky130_fd_sc_hd__a21o_1
*I *214:A I *D sky130_fd_sc_hd__inv_2
*I *234:A2 I *D sky130_fd_sc_hd__o21a_1
*I *235:A2 I *D sky130_fd_sc_hd__a21o_1
*I *213:X O *D sky130_fd_sc_hd__mux2_1
*CAP
1 *215:B1 0.000470336
2 *214:A 3.82418e-05
3 *234:A2 0.000186736
4 *235:A2 7.37115e-05
5 *213:X 3.97728e-05
6 *38:36 0.000575411
7 *38:21 0.00050444
8 *38:6 0.000364355
9 *214:A *219:B2 0
10 *215:B1 *217:A0 1.54142e-05
11 *215:B1 *217:A1 0.000177821
12 *215:B1 *219:A2 7.48301e-06
13 *234:A2 *228:A2 0.000137532
14 *234:A2 *44:36 0.000252542
15 *235:A2 *208:A3 0.00012401
16 *235:A2 *209:A1 4.46186e-06
17 *235:A2 *85:28 5.33005e-05
18 *235:A2 *108:22 0
19 *38:21 *219:A2 1.97756e-05
20 *38:21 *219:B2 6.09889e-05
21 *38:36 *219:A2 1.32552e-05
22 *38:36 *219:B2 1.74352e-05
23 *215:A1 *215:B1 0.000178847
24 *215:A2 *215:B1 3.02849e-05
25 *217:S *215:B1 1.21258e-05
26 *219:A1 *38:6 1.72894e-05
27 *33:21 *234:A2 9.39786e-05
28 *34:12 *235:A2 3.5707e-05
29 *34:55 *235:A2 5.33005e-05
*RES
1 *213:X *38:6 9.83571 
2 *38:6 *235:A2 20.4786 
3 *38:6 *38:21 3 
4 *38:21 *234:A2 22.3 
5 *38:21 *38:36 0.946429 
6 *38:36 *214:A 10.0321 
7 *38:36 *215:B1 15.4964 
*END

*D_NET *39 0.000475972
*CONN
*I *219:B2 I *D sky130_fd_sc_hd__o22a_1
*I *214:Y O *D sky130_fd_sc_hd__inv_2
*CAP
1 *219:B2 7.96286e-05
2 *214:Y 7.96286e-05
3 *219:B2 *219:A2 0.00022459
4 *214:A *219:B2 0
5 *219:A1 *219:B2 1.3701e-05
6 *38:21 *219:B2 6.09889e-05
7 *38:36 *219:B2 1.74352e-05
*RES
1 *214:Y *219:B2 21.2071 
*END

*D_NET *40 0.00194032
*CONN
*I *219:A2 I *D sky130_fd_sc_hd__o22a_1
*I *215:X O *D sky130_fd_sc_hd__a21o_1
*CAP
1 *219:A2 0.000542317
2 *215:X 0.000542317
3 *219:A2 *217:A0 1.98839e-05
4 *219:A2 *218:A1 9.71197e-05
5 *219:A2 *91:16 1.56e-05
6 *215:A1 *219:A2 2.05612e-05
7 *215:A2 *219:A2 0.000176841
8 *215:B1 *219:A2 7.48301e-06
9 *217:S *219:A2 0.000260574
10 *219:B2 *219:A2 0.00022459
11 *38:21 *219:A2 1.97756e-05
12 *38:36 *219:A2 1.32552e-05
*RES
1 *215:X *219:A2 28.1714 
*END

*D_NET *41 0.000630798
*CONN
*I *218:A0 I *D sky130_fd_sc_hd__mux2_1
*I *216:X O *D sky130_fd_sc_hd__mux2_1
*CAP
1 *218:A0 0.00015401
2 *216:X 0.00015401
3 *218:A0 *44:14 0.000139907
4 *218:A0 *75:16 2.44318e-05
5 *218:A0 *81:22 8.00806e-05
6 *218:A0 *83:18 7.83587e-05
*RES
1 *216:X *218:A0 30.4036 
*END

*D_NET *42 0.000484718
*CONN
*I *218:A1 I *D sky130_fd_sc_hd__mux2_1
*I *217:X O *D sky130_fd_sc_hd__mux2_1
*CAP
1 *218:A1 0.000125514
2 *217:X 0.000125514
3 *218:A1 *44:14 6.65398e-05
4 *218:A1 *44:36 5.80706e-06
5 *219:A2 *218:A1 9.71197e-05
6 *33:31 *218:A1 6.42242e-05
*RES
1 *217:X *218:A1 30.1893 
*END

*D_NET *43 0.000482616
*CONN
*I *219:B1 I *D sky130_fd_sc_hd__o22a_1
*I *218:X O *D sky130_fd_sc_hd__mux2_1
*CAP
1 *219:B1 0.00010206
2 *218:X 0.00010206
3 *219:B1 *44:14 3.92854e-05
4 *219:B1 *44:36 3.57844e-05
5 *219:B1 *83:18 0.000148196
6 *34:31 *219:B1 5.52302e-05
*RES
1 *218:X *219:B1 30.0821 
*END

*D_NET *44 0.00726131
*CONN
*I *224:A0 I *D sky130_fd_sc_hd__mux2_1
*I *222:A0 I *D sky130_fd_sc_hd__mux2_1
*I *236:B I *D sky130_fd_sc_hd__nand2_1
*I *230:A0 I *D sky130_fd_sc_hd__mux4_1
*I *226:A0 I *D sky130_fd_sc_hd__mux4_1
*I *220:A0 I *D sky130_fd_sc_hd__mux2_1
*I *221:A0 I *D sky130_fd_sc_hd__mux2_1
*I *219:X O *D sky130_fd_sc_hd__o22a_1
*CAP
1 *224:A0 0.000184279
2 *222:A0 0
3 *236:B 0.000190419
4 *230:A0 1.40355e-05
5 *226:A0 0
6 *220:A0 0
7 *221:A0 0.00028271
8 *219:X 0
9 *44:62 0.000434936
10 *44:60 0.000638044
11 *44:47 0.000397413
12 *44:36 0.000484249
13 *44:14 0.000570858
14 *44:6 0.000598267
15 *221:A0 *210:A0 2.44318e-05
16 *221:A0 *102:23 0.000334263
17 *224:A0 *239:CLK 6.97494e-05
18 *224:A0 *73:35 0.000103267
19 *224:A0 *101:92 0.000103267
20 *230:A0 *237:A2 5.52302e-05
21 *230:A0 *85:28 2.89114e-05
22 *236:B *222:S 5.06983e-05
23 *236:B *236:A 6.20656e-05
24 *236:B *296:A 1.39726e-05
25 *44:14 *253:D 5.7661e-06
26 *44:14 *75:16 0.000484524
27 *44:14 *83:18 4.22985e-05
28 *44:14 *87:16 5.52302e-05
29 *44:36 *228:A2 0.000195913
30 *44:36 *228:B1 0.000354888
31 *44:36 *83:18 5.66201e-05
32 *44:47 *226:S1 5.33005e-05
33 *44:47 *228:A2 3.06511e-05
34 *44:47 *230:A2 0
35 *44:47 *230:S0 2.8266e-06
36 *44:47 *69:18 0.000163475
37 *44:47 *70:12 1.98839e-05
38 *44:47 *70:23 0
39 *44:47 *101:51 0
40 *44:47 *101:92 0
41 *44:47 *104:27 4.77415e-05
42 *44:60 *230:S0 5.9483e-05
43 *44:60 *69:14 0.00026998
44 *44:60 *69:16 0.00012401
45 *44:60 *69:18 4.49293e-05
46 *44:60 *101:92 0
47 *44:62 *222:S 2.95726e-05
48 *211:A_N *221:A0 3.92854e-05
49 *218:A0 *44:14 0.000139907
50 *218:A1 *44:14 6.65398e-05
51 *218:A1 *44:36 5.80706e-06
52 *219:B1 *44:14 3.92854e-05
53 *219:B1 *44:36 3.57844e-05
54 *234:A2 *44:36 0.000252542
55 *33:21 *44:36 0
56 *33:31 *44:14 0
57 *33:31 *44:36 0
*RES
1 *219:X *44:6 13.8 
2 *44:6 *44:14 11.8214 
3 *44:14 *221:A0 22.3357 
4 *44:14 *220:A0 9.3 
5 *44:6 *44:36 12.5179 
6 *44:36 *226:A0 9.3 
7 *44:36 *44:47 8 
8 *44:47 *230:A0 14.3357 
9 *44:47 *44:60 10.0893 
10 *44:60 *44:62 3.41071 
11 *44:62 *236:B 12.7286 
12 *44:62 *222:A0 9.3 
13 *44:60 *224:A0 22.2286 
*END

*D_NET *45 0.00165099
*CONN
*I *229:A1 I *D sky130_fd_sc_hd__mux2_1
*I *226:X O *D sky130_fd_sc_hd__mux4_1
*CAP
1 *229:A1 0.000621281
2 *226:X 0.000621281
3 *229:A1 *205:A 7.14469e-05
4 *229:A1 *226:A2 1.14548e-05
5 *229:A1 *226:A3 8.6229e-06
6 *229:A1 *226:S1 2.36452e-05
7 *229:A1 *230:A3 3.89462e-05
8 *229:A1 *233:S 4.50349e-06
9 *229:A1 *84:24 0.000239839
10 *229:A1 *101:51 9.96717e-06
*RES
1 *226:X *229:A1 36.1 
*END

*D_NET *46 0.00256339
*CONN
*I *228:B1 I *D sky130_fd_sc_hd__a31oi_1
*I *227:Y O *D sky130_fd_sc_hd__a21oi_1
*CAP
1 *228:B1 0.000469148
2 *227:Y 0.000469148
3 *228:B1 *226:A2 0.000121423
4 *228:B1 *227:A2 0.000114759
5 *228:B1 *228:A2 1.32511e-05
6 *228:B1 *235:B1 0.000137061
7 *228:B1 *261:CLK 1.98839e-05
8 *228:B1 *262:CLK 9.41642e-05
9 *228:B1 *69:14 2.26327e-05
10 *228:B1 *69:18 8.2958e-06
11 *228:B1 *70:12 0.000216706
12 *228:B1 *83:18 2.79902e-05
13 *228:B1 *84:32 0.000185051
14 *228:B1 *84:45 1.44868e-05
15 *228:B1 *85:28 5.33005e-05
16 *228:B1 *109:27 0.000241205
17 *44:36 *228:B1 0.000354888
*RES
1 *227:Y *228:B1 39.9393 
*END

*D_NET *47 0.000716964
*CONN
*I *229:A0 I *D sky130_fd_sc_hd__mux2_1
*I *228:Y O *D sky130_fd_sc_hd__a31oi_1
*CAP
1 *229:A0 0.00023585
2 *228:Y 0.00023585
3 *229:A0 *228:A2 9.90367e-05
4 *229:A0 *229:S 9.60939e-05
5 *229:A0 *261:CLK 5.01338e-05
*RES
1 *228:Y *229:A0 22.9929 
*END

*D_NET *48 0.000587772
*CONN
*I *233:A1 I *D sky130_fd_sc_hd__mux2_1
*I *230:X O *D sky130_fd_sc_hd__mux4_1
*CAP
1 *233:A1 0.000182731
2 *230:X 0.000182731
3 *233:A1 *233:A0 0.000128146
4 *233:A1 *85:28 9.41642e-05
*RES
1 *230:X *233:A1 30.1893 
*END

*D_NET *49 0.00107907
*CONN
*I *232:B1 I *D sky130_fd_sc_hd__a31oi_1
*I *231:Y O *D sky130_fd_sc_hd__a21oi_1
*CAP
1 *232:B1 0.000382196
2 *231:Y 0.000382196
3 *232:B1 *231:B1 2.14757e-05
4 *232:B1 *233:A0 0.000102146
5 *232:B1 *238:A2_N 3.69697e-05
6 shift_data_out *232:B1 9.60875e-05
7 *232:A1 *232:B1 5.80004e-05
*RES
1 *231:Y *232:B1 32.9214 
*END

*D_NET *50 0.00115333
*CONN
*I *233:A0 I *D sky130_fd_sc_hd__mux2_1
*I *232:Y O *D sky130_fd_sc_hd__a31oi_1
*CAP
1 *233:A0 0.000312711
2 *232:Y 0.000312711
3 *233:A0 *230:S1 2.05413e-05
4 *233:A0 *237:A2 0.000147358
5 *233:A0 *292:A 4.95138e-05
6 *233:A0 *93:16 4.46186e-06
7 carry_out *233:A0 4.95409e-05
8 horz_bus_out[3] *233:A0 1.21955e-05
9 *232:A1 *233:A0 5.74499e-06
10 *232:B1 *233:A0 0.000102146
11 *233:A1 *233:A0 0.000128146
12 *30:14 *233:A0 8.25843e-06
*RES
1 *232:Y *233:A0 34.5464 
*END

*D_NET *51 0.000682131
*CONN
*I *235:B1 I *D sky130_fd_sc_hd__a21o_1
*I *234:X O *D sky130_fd_sc_hd__o21a_1
*CAP
1 *235:B1 0.000156923
2 *234:X 0.000156923
3 *235:B1 *83:18 0.000137061
4 *228:B1 *235:B1 0.000137061
5 *33:21 *235:B1 9.41642e-05
*RES
1 *234:X *235:B1 30.4929 
*END

*D_NET *52 0.00331869
*CONN
*I *238:A1_N I *D sky130_fd_sc_hd__o2bb2a_1
*I *236:Y O *D sky130_fd_sc_hd__nand2_1
*CAP
1 *238:A1_N 0.00115359
2 *236:Y 0.00115359
3 *238:A1_N *225:S 9.06851e-05
4 *238:A1_N *256:CLK 4.56437e-05
5 *238:A1_N *258:D 0.000174195
6 *238:A1_N *263:CLK 5.52238e-05
7 *238:A1_N *263:D 1.64343e-05
8 *238:A1_N *298:A 5.96161e-05
9 *238:A1_N *69:14 4.0552e-05
10 *238:A1_N *74:10 4.00679e-05
11 *238:A1_N *78:14 0.000177941
12 *238:A1_N *100:43 0.000311165
*RES
1 *236:Y *238:A1_N 47.4795 
*END

*D_NET *53 0.00134654
*CONN
*I *238:A2_N I *D sky130_fd_sc_hd__o2bb2a_1
*I *237:Y O *D sky130_fd_sc_hd__a21oi_1
*CAP
1 *238:A2_N 0.000287906
2 *237:Y 0.000287906
3 *238:A2_N *231:A2 5.41797e-06
4 *238:A2_N *93:16 0.000568846
5 shift_data_out *238:A2_N 0.000153691
6 *232:B1 *238:A2_N 3.69697e-05
7 *239:D *238:A2_N 5.80706e-06
*RES
1 *237:Y *238:A2_N 35.0107 
*END

*D_NET *54 0.00213237
*CONN
*I *270:A I *D sky130_fd_sc_hd__clkbuf_16
*I *269:A I *D sky130_fd_sc_hd__clkbuf_16
*I *268:X O *D sky130_fd_sc_hd__clkbuf_16
*CAP
1 *270:A 0.000118901
2 *269:A 0.000474845
3 *268:X 0.000111392
4 *54:8 0.000705138
5 *269:A *206:A 5.03772e-05
6 *269:A *231:B1 9.90367e-05
7 *269:A *233:S 7.50697e-05
8 *269:A *74:10 9.21958e-05
9 *239:D *270:A 0.000216755
10 *283:A *269:A 0.00010705
11 *283:A *54:8 8.16036e-05
*RES
1 *268:X *54:8 15.7464 
2 *54:8 *269:A 21.8536 
3 *54:8 *270:A 15.9786 
*END

*D_NET *55 0.00192016
*CONN
*I *239:CLK I *D sky130_fd_sc_hd__dfxtp_1
*I *269:X O *D sky130_fd_sc_hd__clkbuf_16
*CAP
1 *239:CLK 0.000428616
2 *269:X 0.000428616
3 *239:CLK *206:A 0.000551264
4 *239:CLK *263:D 0.000268528
5 *239:CLK *73:35 0.000173382
6 *224:A0 *239:CLK 6.97494e-05
*RES
1 *269:X *239:CLK 37.9036 
*END

*D_NET *56 0.00364981
*CONN
*I *271:A I *D sky130_fd_sc_hd__clkbuf_4
*I *265:A I *D sky130_fd_sc_hd__buf_2
*I *270:X O *D sky130_fd_sc_hd__clkbuf_16
*CAP
1 *271:A 0
2 *265:A 0.000961593
3 *270:X 0.000148004
4 *56:12 0.0011096
5 *265:A *206:A 0.000261246
6 *265:A *223:A0 0.000274288
7 *265:A *223:A1 7.49387e-06
8 *265:A *297:A 9.15975e-05
9 *265:A *298:A 0.000135028
10 carry_out *56:12 7.82357e-05
11 vert_bus_out[1] *265:A 1.33343e-05
12 vert_bus_out[2] *265:A 0.000220608
13 *238:B1 *265:A 0.000192879
14 *238:B1 *56:12 1.30607e-05
15 *268:A *265:A 0.00014285
*RES
1 *270:X *56:12 21.0857 
2 *56:12 *265:A 27.925 
3 *56:12 *271:A 9.3 
*END

*D_NET *57 0.00435905
*CONN
*I *241:D I *D sky130_fd_sc_hd__dfxtp_1
*I *213:S I *D sky130_fd_sc_hd__mux2_1
*I *240:Q O *D sky130_fd_sc_hd__dfxtp_1
*CAP
1 *241:D 0.000379974
2 *213:S 5.67187e-05
3 *240:Q 0.00118053
4 *57:18 0.00161722
5 *213:S *108:22 2.84398e-05
6 *241:D *213:A0 0.000304387
7 *241:D *58:16 0.000183713
8 *57:18 *243:D 9.23883e-05
9 *57:18 *261:CLK 6.64164e-05
10 *57:18 *296:A 0.000135028
11 *57:18 *100:43 4.25622e-05
12 *57:18 *100:63 0
13 *57:18 *100:67 8.15834e-05
14 *57:18 *108:22 0.000190089
*RES
1 *240:Q *57:18 29.9607 
2 *57:18 *213:S 14.5321 
3 *57:18 *241:D 20.1259 
*END

*D_NET *58 0.00161132
*CONN
*I *209:S I *D sky130_fd_sc_hd__mux2_1
*I *242:D I *D sky130_fd_sc_hd__dfxtp_1
*I *241:Q O *D sky130_fd_sc_hd__dfxtp_1
*CAP
1 *209:S 0.000172821
2 *242:D 0
3 *241:Q 0.000283967
4 *58:16 0.000456788
5 *209:S *209:A1 5.71472e-05
6 *209:S *242:CLK 6.20644e-05
7 *209:S *261:CLK 5.60962e-05
8 *209:S *288:A 0.000172396
9 *58:16 *242:CLK 3.42227e-05
10 *58:16 *288:A 2.65319e-05
11 *241:D *58:16 0.000183713
12 *34:8 *209:S 0.000105569
*RES
1 *241:Q *58:16 22.4607 
2 *58:16 *242:D 9.3 
3 *58:16 *209:S 13.9964 
*END

*D_NET *59 0.00261296
*CONN
*I *243:D I *D sky130_fd_sc_hd__dfxtp_1
*I *208:S1 I *D sky130_fd_sc_hd__mux4_2
*I *242:Q O *D sky130_fd_sc_hd__dfxtp_1
*CAP
1 *243:D 0.000236665
2 *208:S1 3.14178e-05
3 *242:Q 0.00067661
4 *59:14 0.000944694
5 *208:S1 *208:A3 2.47631e-06
6 *243:D *208:A3 6.85261e-05
7 *243:D *104:27 1.64343e-05
8 *59:14 *208:A2 5.33005e-05
9 *59:14 *208:A3 2.59355e-05
10 *59:14 *208:S0 3.45322e-05
11 *59:14 *242:CLK 1.44042e-05
12 *59:14 *244:D 0.000119347
13 *59:14 *60:10 6.55334e-05
14 *59:14 *82:20 0.00018488
15 *281:A *59:14 4.58194e-05
16 *57:18 *243:D 9.23883e-05
*RES
1 *242:Q *59:14 27.2643 
2 *59:14 *208:S1 9.72857 
3 *59:14 *243:D 21.1616 
*END

*D_NET *60 0.00353355
*CONN
*I *208:S0 I *D sky130_fd_sc_hd__mux4_2
*I *244:D I *D sky130_fd_sc_hd__dfxtp_1
*I *243:Q O *D sky130_fd_sc_hd__dfxtp_1
*CAP
1 *208:S0 0.000108939
2 *244:D 0.000653109
3 *243:Q 0.000157516
4 *60:10 0.000919564
5 *244:D *82:20 0.00094785
6 *244:D *99:43 2.68554e-05
7 *60:10 *272:A 2.78576e-05
8 *60:10 *82:20 3.82482e-05
9 *279:A *244:D 0.000148911
10 *281:A *208:S0 5.33005e-05
11 *281:A *244:D 0.000202426
12 *281:A *60:10 2.95642e-05
13 *59:14 *208:S0 3.45322e-05
14 *59:14 *244:D 0.000119347
15 *59:14 *60:10 6.55334e-05
*RES
1 *243:Q *60:10 16.2821 
2 *60:10 *244:D 28.8759 
3 *60:10 *208:S0 6.20536 
*END

*D_NET *61 0.00280664
*CONN
*I *210:A0 I *D sky130_fd_sc_hd__mux2_1
*I *245:D I *D sky130_fd_sc_hd__dfxtp_1
*I *244:Q O *D sky130_fd_sc_hd__dfxtp_1
*CAP
1 *210:A0 0.000541997
2 *245:D 0.000329036
3 *244:Q 0.00015992
4 *61:8 0.00103095
5 *210:A0 *290:A 0.000139009
6 *210:A0 *102:8 5.52302e-05
7 *210:A0 *102:23 0.000289001
8 *61:8 *99:43 1.7473e-05
9 *219:A1 *210:A0 0.0001098
10 *221:A0 *210:A0 2.44318e-05
11 *276:A *245:D 0.000109789
*RES
1 *244:Q *61:8 15.5679 
2 *61:8 *245:D 18.1437 
3 *61:8 *210:A0 23.2286 
*END

*D_NET *62 0.00162341
*CONN
*I *210:A1 I *D sky130_fd_sc_hd__mux2_1
*I *246:D I *D sky130_fd_sc_hd__dfxtp_1
*I *245:Q O *D sky130_fd_sc_hd__dfxtp_1
*CAP
1 *210:A1 0.000156341
2 *246:D 7.49192e-05
3 *245:Q 0.000146176
4 *62:10 0.000377437
5 *210:A1 *81:22 0
6 *210:A1 *87:16 0.000350873
7 *210:A1 *99:67 2.8266e-06
8 *210:A1 *99:86 5.12344e-05
9 *246:D *212:A1 0.000117543
10 *246:D *99:54 8.01182e-05
11 *62:10 *247:CLK 2.34204e-05
12 *62:10 *87:16 0.000162945
13 *62:10 *99:67 2.6949e-05
14 *212:S *210:A1 5.26277e-05
*RES
1 *245:Q *62:10 16.6929 
2 *62:10 *246:D 16.0187 
3 *62:10 *210:A1 18.4786 
*END

*D_NET *63 0.0018869
*CONN
*I *212:A0 I *D sky130_fd_sc_hd__mux2_1
*I *247:D I *D sky130_fd_sc_hd__dfxtp_1
*I *246:Q O *D sky130_fd_sc_hd__dfxtp_1
*CAP
1 *212:A0 0.000220922
2 *247:D 0.000229847
3 *246:Q 0
4 *63:6 0.000450769
5 *212:A0 *65:10 5.01117e-05
6 *212:A0 *81:22 2.74584e-05
7 *212:A0 *99:86 0.000139907
8 *247:D *247:CLK 5.2198e-05
9 *247:D *288:A 0
10 *247:D *65:10 5.80706e-06
11 *247:D *81:22 4.6687e-05
12 *247:D *87:16 1.76204e-05
13 *211:A_N *212:A0 2.28499e-05
14 *212:S *212:A0 1.02821e-05
15 *215:A2 *212:A0 0.000310292
16 *277:A *212:A0 0.00022459
17 *278:A *247:D 7.75637e-05
*RES
1 *246:Q *63:6 13.8 
2 *63:6 *247:D 18.5009 
3 *63:6 *212:A0 19.7821 
*END

*D_NET *64 0.00308049
*CONN
*I *248:D I *D sky130_fd_sc_hd__dfxtp_1
*I *212:A1 I *D sky130_fd_sc_hd__mux2_1
*I *247:Q O *D sky130_fd_sc_hd__dfxtp_1
*CAP
1 *248:D 9.57305e-05
2 *212:A1 0.000642876
3 *247:Q 0.000224466
4 *64:12 0.000963073
5 *212:A1 *248:CLK 0.000506496
6 *212:A1 *65:10 5.71472e-05
7 *212:A1 *99:54 1.25363e-05
8 *212:A1 *108:22 9.25014e-06
9 *248:D *248:CLK 0.000173357
10 *64:12 *84:24 0.000122712
11 *64:12 *87:16 5.52302e-05
12 clk_out *64:12 6.07866e-05
13 *246:D *212:A1 0.000117543
14 *277:A *212:A1 3.92854e-05
*RES
1 *247:Q *64:12 22.6036 
2 *64:12 *212:A1 28.6393 
3 *64:12 *248:D 11.108 
*END

*D_NET *65 0.000857695
*CONN
*I *216:A0 I *D sky130_fd_sc_hd__mux2_1
*I *249:D I *D sky130_fd_sc_hd__dfxtp_1
*I *248:Q O *D sky130_fd_sc_hd__dfxtp_1
*CAP
1 *216:A0 0.000164439
2 *249:D 1.0091e-05
3 *248:Q 0.000127375
4 *65:10 0.000301906
5 *216:A0 *250:CLK 0.000129994
6 *216:A0 *288:A 0
7 *65:10 *250:CLK 2.8266e-06
8 *65:10 *288:A 0
9 *212:A0 *65:10 5.01117e-05
10 *212:A1 *65:10 5.71472e-05
11 *215:A2 *249:D 7.99677e-06
12 *247:D *65:10 5.80706e-06
13 *33:31 *216:A0 0
*RES
1 *248:Q *65:10 15.9786 
2 *65:10 *249:D 13.9652 
3 *65:10 *216:A0 17.3179 
*END

*D_NET *66 0.00149012
*CONN
*I *250:D I *D sky130_fd_sc_hd__dfxtp_1
*I *216:A1 I *D sky130_fd_sc_hd__mux2_1
*I *249:Q O *D sky130_fd_sc_hd__dfxtp_1
*CAP
1 *250:D 0
2 *216:A1 0.00025507
3 *249:Q 0.000259257
4 *66:14 0.000514327
5 *216:A1 *250:CLK 0.000203483
6 *216:A1 *290:A 2.40417e-05
7 *66:14 *252:CLK 0.000141724
8 *66:14 *290:A 1.18622e-06
9 *66:14 *84:24 8.06331e-05
10 *215:A2 *66:14 1.03968e-05
*RES
1 *249:Q *66:14 22.5902 
2 *66:14 *216:A1 13.117 
3 *66:14 *250:D 9.3 
*END

*D_NET *67 0.00210871
*CONN
*I *251:D I *D sky130_fd_sc_hd__dfxtp_1
*I *217:A0 I *D sky130_fd_sc_hd__mux2_1
*I *250:Q O *D sky130_fd_sc_hd__dfxtp_1
*CAP
1 *251:D 0
2 *217:A0 0.000302059
3 *250:Q 0.000344187
4 *67:16 0.000646246
5 *217:A0 *217:A1 0.000105747
6 *217:A0 *75:16 4.99321e-05
7 *217:A0 *101:61 3.68633e-05
8 *67:16 *217:A1 3.40523e-05
9 *67:16 *290:A 9.00448e-05
10 *67:16 *75:16 4.40903e-05
11 *215:A1 *217:A0 0.000222239
12 *215:A2 *67:16 0.000100831
13 *215:B1 *217:A0 1.54142e-05
14 *217:S *217:A0 9.71197e-05
15 *219:A2 *217:A0 1.98839e-05
*RES
1 *250:Q *67:16 23.2821 
2 *67:16 *217:A0 24.1571 
3 *67:16 *251:D 9.3 
*END

*D_NET *68 0.00402866
*CONN
*I *252:D I *D sky130_fd_sc_hd__dfxtp_1
*I *217:A1 I *D sky130_fd_sc_hd__mux2_1
*I *251:Q O *D sky130_fd_sc_hd__dfxtp_1
*CAP
1 *252:D 0.000385559
2 *217:A1 0.000584045
3 *251:Q 0.000314409
4 *68:6 0.00128401
5 *217:A1 *288:A 0.000171375
6 *217:A1 *75:16 6.13757e-06
7 *217:A1 *101:61 1.02821e-05
8 *68:6 *75:16 3.02031e-05
9 *215:A1 *217:A1 0.000221634
10 *215:A2 *252:D 0.000462106
11 *215:B1 *217:A1 0.000177821
12 *217:A0 *217:A1 0.000105747
13 *217:S *217:A1 5.96516e-05
14 *33:21 *217:A1 5.83304e-05
15 *33:31 *217:A1 0.000123288
16 *67:16 *217:A1 3.40523e-05
*RES
1 *251:Q *68:6 12.7107 
2 *68:6 *217:A1 27.7821 
3 *68:6 *252:D 24.358 
*END

*D_NET *69 0.00587984
*CONN
*I *227:B1 I *D sky130_fd_sc_hd__a21oi_1
*I *259:D I *D sky130_fd_sc_hd__dfxtp_1
*I *226:S1 I *D sky130_fd_sc_hd__mux4_1
*I *228:A2 I *D sky130_fd_sc_hd__a31oi_1
*I *258:Q O *D sky130_fd_sc_hd__dfxtp_1
*CAP
1 *227:B1 6.94383e-05
2 *259:D 0.000350569
3 *226:S1 0.000159419
4 *228:A2 0.000321879
5 *258:Q 0.000411259
6 *69:18 0.000599122
7 *69:16 0.000513861
8 *69:14 0.000526166
9 *226:S1 *226:A2 8.77505e-05
10 *226:S1 *70:12 0.00018372
11 *226:S1 *70:23 4.18895e-05
12 *226:S1 *104:27 8.17039e-05
13 *227:B1 *230:A2 9.41642e-05
14 *227:B1 *262:CLK 8.55871e-05
15 *227:B1 *83:22 9.41642e-05
16 *228:A2 *228:A3 6.19639e-06
17 *228:A2 *261:CLK 5.03772e-05
18 *259:D *237:A2 1.24368e-05
19 *259:D *259:CLK 0.000144186
20 *259:D *85:28 5.60158e-05
21 *259:D *109:50 5.96516e-05
22 *69:14 *225:S 0.000125724
23 *69:14 *227:A2 2.41865e-05
24 *69:14 *263:CLK 0
25 *69:14 *101:92 0
26 *69:14 *109:23 2.28473e-05
27 *69:14 *109:27 7.7973e-05
28 *69:16 *227:A2 0.000100823
29 *69:16 *70:12 2.41865e-05
30 *69:18 *70:12 0.000190812
31 *228:A1 *228:A2 0.000116371
32 *228:B1 *228:A2 1.32511e-05
33 *228:B1 *69:14 2.26327e-05
34 *228:B1 *69:18 8.2958e-06
35 *229:A0 *228:A2 9.90367e-05
36 *229:A1 *226:S1 2.36452e-05
37 *234:A2 *228:A2 0.000137532
38 *238:A1_N *69:14 4.0552e-05
39 *33:21 *228:A2 2.01602e-05
40 *44:36 *228:A2 0.000195913
41 *44:47 *226:S1 5.33005e-05
42 *44:47 *228:A2 3.06511e-05
43 *44:47 *69:18 0.000163475
44 *44:60 *69:14 0.00026998
45 *44:60 *69:16 0.00012401
46 *44:60 *69:18 4.49293e-05
*RES
1 *258:Q *69:14 22.925 
2 *69:14 *69:16 1.64286 
3 *69:16 *69:18 2.85714 
4 *69:18 *228:A2 20.6929 
5 *69:18 *226:S1 18.0321 
6 *69:16 *259:D 19.3045 
7 *69:14 *227:B1 15.5679 
*END

*D_NET *70 0.00289755
*CONN
*I *227:A2 I *D sky130_fd_sc_hd__a21oi_1
*I *260:D I *D sky130_fd_sc_hd__dfxtp_1
*I *228:A3 I *D sky130_fd_sc_hd__a31oi_1
*I *226:S0 I *D sky130_fd_sc_hd__mux4_1
*I *259:Q O *D sky130_fd_sc_hd__dfxtp_1
*CAP
1 *227:A2 4.34574e-05
2 *260:D 3.69338e-05
3 *228:A3 0.000171048
4 *226:S0 0
5 *259:Q 0
6 *70:23 0.000373452
7 *70:12 0.000296088
8 *70:6 0.000174075
9 *228:A3 *288:A 7.64153e-05
10 *228:A3 *101:51 2.81008e-05
11 *228:A3 *101:61 2.53281e-05
12 *260:D *230:A3 8.52807e-05
13 *260:D *260:CLK 1.75642e-05
14 *70:12 *226:A2 0.000224583
15 *70:23 *226:A2 5.52238e-05
16 *70:23 *101:51 0.000206247
17 *226:S1 *70:12 0.00018372
18 *226:S1 *70:23 4.18895e-05
19 *228:A2 *228:A3 6.19639e-06
20 *228:B1 *227:A2 0.000114759
21 *228:B1 *70:12 0.000216706
22 *33:21 *228:A3 0.00016059
23 *44:47 *70:12 1.98839e-05
24 *44:47 *70:23 0
25 *69:14 *227:A2 2.41865e-05
26 *69:16 *227:A2 0.000100823
27 *69:16 *70:12 2.41865e-05
28 *69:18 *70:12 0.000190812
*RES
1 *259:Q *70:6 13.8 
2 *70:6 *70:12 9.53571 
3 *70:12 *226:S0 9.3 
4 *70:12 *70:23 7.89286 
5 *70:23 *228:A3 17.1929 
6 *70:23 *260:D 14.6571 
7 *70:6 *227:A2 15.4429 
*END

*D_NET *71 0.00158759
*CONN
*I *261:D I *D sky130_fd_sc_hd__dfxtp_1
*I *229:S I *D sky130_fd_sc_hd__mux2_1
*I *260:Q O *D sky130_fd_sc_hd__dfxtp_1
*CAP
1 *261:D 0
2 *229:S 0.000214086
3 *260:Q 0.00024205
4 *71:14 0.000456136
5 *229:S *261:CLK 0.00029115
6 *229:S *291:A 4.13595e-05
7 *229:S *72:12 9.18079e-05
8 *71:14 *205:A 7.07155e-06
9 *71:14 *72:12 4.28604e-06
10 *71:14 *91:16 0.000143549
11 *229:A0 *229:S 9.60939e-05
*RES
1 *260:Q *71:14 21.358 
2 *71:14 *229:S 14.0455 
3 *71:14 *261:D 9.3 
*END

*D_NET *72 0.00630617
*CONN
*I *231:B1 I *D sky130_fd_sc_hd__a21oi_1
*I *232:A2 I *D sky130_fd_sc_hd__a31oi_1
*I *230:S0 I *D sky130_fd_sc_hd__mux4_1
*I *262:D I *D sky130_fd_sc_hd__dfxtp_1
*I *261:Q O *D sky130_fd_sc_hd__dfxtp_1
*CAP
1 *231:B1 0.000416642
2 *232:A2 8.76276e-05
3 *230:S0 0.000123787
4 *262:D 2.44667e-05
5 *261:Q 0.000891785
6 *72:18 0.000465196
7 *72:14 0.00040457
8 *72:12 0.00130843
9 *230:S0 *230:A2 0.000235473
10 *230:S0 *237:A2 3.97519e-05
11 *230:S0 *85:28 2.44318e-05
12 *230:S0 *101:92 1.08359e-05
13 *231:B1 *206:A 1.21258e-05
14 *231:B1 *231:A1 8.36075e-05
15 *231:B1 *233:S 1.20379e-05
16 *231:B1 *91:16 0.000281142
17 *231:B1 *105:25 6.22596e-05
18 *232:A2 *232:A3 2.115e-05
19 *262:D *230:A2 5.95099e-05
20 *72:12 *291:A 0.000478619
21 *72:12 *91:16 0.000718539
22 *72:18 *230:A2 4.08637e-05
23 *72:18 *232:A3 5.69856e-05
24 *72:18 *73:10 5.9555e-05
25 shift_data_out *231:B1 9.41642e-05
26 *229:S *72:12 9.18079e-05
27 *232:A1 *72:18 1.3701e-05
28 *232:B1 *231:B1 2.14757e-05
29 *269:A *231:B1 9.90367e-05
30 *44:47 *230:S0 2.8266e-06
31 *44:60 *230:S0 5.9483e-05
32 *71:14 *72:12 4.28604e-06
*RES
1 *261:Q *72:12 29.6393 
2 *72:12 *72:14 4.5 
3 *72:14 *72:18 5.07143 
4 *72:18 *262:D 9.87589 
5 *72:18 *230:S0 21.8179 
6 *72:14 *232:A2 10.2464 
7 *72:12 *231:B1 21.7464 
*END

*D_NET *73 0.00656742
*CONN
*I *232:A3 I *D sky130_fd_sc_hd__a31oi_1
*I *263:D I *D sky130_fd_sc_hd__dfxtp_1
*I *231:A2 I *D sky130_fd_sc_hd__a21oi_1
*I *230:S1 I *D sky130_fd_sc_hd__mux4_1
*I *262:Q O *D sky130_fd_sc_hd__dfxtp_1
*CAP
1 *232:A3 0.000120297
2 *263:D 0.000112453
3 *231:A2 0.000651092
4 *230:S1 0.00102359
5 *262:Q 4.05517e-05
6 *73:35 0.000884072
7 *73:10 0.00136719
8 *73:6 0.000383922
9 *230:S1 *231:A1 0
10 *230:S1 *237:A2 0.000209713
11 *230:S1 *85:28 0.000222041
12 *230:S1 *101:92 0.000101124
13 *231:A2 *264:CLK 0.000257619
14 *231:A2 *264:D 1.64343e-05
15 *263:D *263:CLK 0.000129185
16 *263:D *101:92 1.17968e-05
17 *73:35 *101:92 7.68261e-05
18 carry_out *230:S1 7.43174e-05
19 horz_bus_out[3] *230:S1 2.83051e-05
20 shift_data_out *231:A2 0.000114485
21 *224:A0 *73:35 0.000103267
22 *232:A1 *232:A3 7.00169e-06
23 *232:A2 *232:A3 2.115e-05
24 *233:A0 *230:S1 2.05413e-05
25 *238:A1_N *263:D 1.64343e-05
26 *238:A2_N *231:A2 5.41797e-06
27 *239:CLK *263:D 0.000268528
28 *239:CLK *73:35 0.000173382
29 *30:14 *230:S1 1.01417e-05
30 *72:18 *232:A3 5.69856e-05
31 *72:18 *73:10 5.9555e-05
*RES
1 *262:Q *73:6 9.83571 
2 *73:6 *73:10 7.08929 
3 *73:10 *230:S1 30.785 
4 *73:10 *73:35 3.46429 
5 *73:35 *231:A2 30.3179 
6 *73:35 *263:D 17.4295 
7 *73:6 *232:A3 11.4607 
*END

*D_NET *74 0.00278005
*CONN
*I *264:D I *D sky130_fd_sc_hd__dfxtp_1
*I *233:S I *D sky130_fd_sc_hd__mux2_1
*I *263:Q O *D sky130_fd_sc_hd__dfxtp_1
*CAP
1 *264:D 8.91788e-06
2 *233:S 0.000740622
3 *263:Q 0.000269541
4 *74:10 0.00101908
5 *233:S *91:16 0.000501578
6 *229:A1 *233:S 4.50349e-06
7 *231:A2 *264:D 1.64343e-05
8 *231:B1 *233:S 1.20379e-05
9 *238:A1_N *74:10 4.00679e-05
10 *269:A *233:S 7.50697e-05
11 *269:A *74:10 9.21958e-05
*RES
1 *263:Q *74:10 17.4071 
2 *74:10 *233:S 24.3893 
3 *74:10 *264:D 13.9652 
*END

*D_NET *75 0.00454703
*CONN
*I *220:S I *D sky130_fd_sc_hd__mux2_1
*I *253:D I *D sky130_fd_sc_hd__dfxtp_1
*I *252:Q O *D sky130_fd_sc_hd__dfxtp_1
*CAP
1 *220:S 2.23854e-05
2 *253:D 0.000119077
3 *252:Q 0.00135872
4 *75:16 0.00150018
5 *253:D *220:A1 0.000244779
6 *253:D *253:CLK 0.000122188
7 *75:16 *220:A1 1.98839e-05
8 *75:16 *293:A 0
9 *75:16 *101:61 0.000149471
10 *215:A1 *75:16 8.12154e-05
11 *217:A0 *75:16 4.99321e-05
12 *217:A1 *75:16 6.13757e-06
13 *218:A0 *75:16 2.44318e-05
14 *34:31 *75:16 0.000284047
15 *44:14 *253:D 5.7661e-06
16 *44:14 *75:16 0.000484524
17 *67:16 *75:16 4.40903e-05
18 *68:6 *75:16 3.02031e-05
*RES
1 *252:Q *75:16 40.4071 
2 *75:16 *253:D 12.1795 
3 *75:16 *220:S 9.72857 
*END

*D_NET *76 0.00362942
*CONN
*I *254:D I *D sky130_fd_sc_hd__dfxtp_1
*I *221:S I *D sky130_fd_sc_hd__mux2_1
*I *253:Q O *D sky130_fd_sc_hd__dfxtp_1
*CAP
1 *254:D 0.000762083
2 *221:S 0.000395399
3 *253:Q 0
4 *76:6 0.00115748
5 *221:S *82:20 0
6 *221:S *92:12 0.000135951
7 *221:S *99:20 8.32242e-05
8 *221:S *99:22 0.000117063
9 *221:S *102:8 0.000148395
10 *254:D *82:20 0
11 *254:D *99:8 0.000366845
12 *254:D *99:14 0.000128161
13 *254:D *99:20 0.000142797
14 *254:D *100:28 5.71472e-05
15 *254:D *100:37 0.000113733
16 *280:A *221:S 2.11419e-05
*RES
1 *253:Q *76:6 13.8 
2 *76:6 *221:S 21.7464 
3 *76:6 *254:D 29.3223 
*END

*D_NET *77 0.00302892
*CONN
*I *222:S I *D sky130_fd_sc_hd__mux2_1
*I *255:D I *D sky130_fd_sc_hd__dfxtp_1
*I *254:Q O *D sky130_fd_sc_hd__dfxtp_1
*CAP
1 *222:S 0.000371179
2 *255:D 0.000814228
3 *254:Q 0
4 *77:4 0.00118541
5 *222:S *224:A1 3.34672e-05
6 *222:S *236:A 0
7 *222:S *262:CLK 6.05161e-06
8 *222:S *100:37 7.28784e-05
9 *222:S *100:43 0.000101545
10 *255:D *255:CLK 2.89016e-05
11 *255:D *82:20 8.18775e-05
12 *255:D *100:37 0.000140537
13 *236:B *222:S 5.06983e-05
14 *285:A *255:D 0.00011258
15 *44:62 *222:S 2.95726e-05
*RES
1 *254:Q *77:4 9.3 
2 *77:4 *255:D 28.4652 
3 *77:4 *222:S 24.425 
*END

*D_NET *78 0.00176444
*CONN
*I *223:S I *D sky130_fd_sc_hd__mux2_1
*I *256:D I *D sky130_fd_sc_hd__dfxtp_1
*I *255:Q O *D sky130_fd_sc_hd__dfxtp_1
*CAP
1 *223:S 0.000197108
2 *256:D 0
3 *255:Q 0.000199542
4 *78:14 0.00039665
5 *223:S *223:A0 4.48113e-05
6 *223:S *223:A1 0
7 *223:S *256:CLK 7.0528e-05
8 *223:S *298:A 0
9 *223:S *93:16 0.000167292
10 *78:14 *224:S 0.000138881
11 *78:14 *256:CLK 5.84075e-05
12 *78:14 *298:A 0.000296844
13 *78:14 *93:16 1.64343e-05
14 *238:A1_N *78:14 0.000177941
*RES
1 *255:Q *78:14 23.5902 
2 *78:14 *256:D 9.3 
3 *78:14 *223:S 22.8848 
*END

*D_NET *79 0.00373075
*CONN
*I *257:D I *D sky130_fd_sc_hd__dfxtp_1
*I *224:S I *D sky130_fd_sc_hd__mux2_1
*I *256:Q O *D sky130_fd_sc_hd__dfxtp_1
*CAP
1 *257:D 0.000111372
2 *224:S 0.000930667
3 *256:Q 0.000241751
4 *79:10 0.00128379
5 *224:S *224:A1 0.000338849
6 *224:S *264:CLK 1.21258e-05
7 *224:S *298:A 7.78179e-05
8 *224:S *299:A 0.00014183
9 *224:S *86:16 0.000151333
10 *79:10 *86:16 0.000126439
11 *79:10 *101:32 0.000175892
12 *78:14 *224:S 0.000138881
*RES
1 *256:Q *79:10 17.2107 
2 *79:10 *224:S 29.175 
3 *79:10 *257:D 15.1973 
*END

*D_NET *80 0.00152103
*CONN
*I *225:S I *D sky130_fd_sc_hd__mux2_1
*I *258:D I *D sky130_fd_sc_hd__dfxtp_1
*I *257:Q O *D sky130_fd_sc_hd__dfxtp_1
*CAP
1 *225:S 0.000450261
2 *258:D 7.95746e-05
3 *257:Q 0
4 *80:4 0.000529836
5 *225:S *225:A1 2.06112e-05
6 *225:S *109:23 5.01448e-05
7 *238:A1_N *225:S 9.06851e-05
8 *238:A1_N *258:D 0.000174195
9 *69:14 *225:S 0.000125724
*RES
1 *257:Q *80:4 9.3 
2 *80:4 *258:D 12.0143 
3 *80:4 *225:S 24.9964 
*END

*D_NET *81 0.00657999
*CONN
*I *208:A3 I *D sky130_fd_sc_hd__mux4_2
*I *275:X O *D sky130_fd_sc_hd__clkbuf_1
*CAP
1 *208:A3 0.000634734
2 *275:X 0.00148757
3 *81:22 0.00212231
4 *208:A3 *208:A1 5.33005e-05
5 *208:A3 *209:A1 4.05179e-06
6 *208:A3 *224:A1 0.000164619
7 *208:A3 *83:18 9.19438e-05
8 *208:A3 *85:28 7.56883e-05
9 *208:A3 *103:40 0.000135028
10 *81:22 *247:CLK 9.25014e-06
11 *81:22 *248:CLK 0.000300316
12 *81:22 *250:CLK 3.46549e-05
13 *81:22 *293:A 7.83587e-05
14 *81:22 *83:18 0.000412725
15 *81:22 *87:16 0
16 *81:22 *99:67 8.15095e-05
17 *81:22 *99:86 0.000168939
18 *208:S1 *208:A3 2.47631e-06
19 *210:A1 *81:22 0
20 *211:A_N *81:22 0
21 *212:A0 *81:22 2.74584e-05
22 *212:S *81:22 0.000146474
23 *218:A0 *81:22 8.00806e-05
24 *234:A1 *208:A3 0.000203342
25 *235:A2 *208:A3 0.00012401
26 *243:D *208:A3 6.85261e-05
27 *247:D *81:22 4.6687e-05
28 *34:12 *208:A3 0
29 *34:12 *81:22 0
30 *59:14 *208:A3 2.59355e-05
*RES
1 *275:X *81:22 47.1482 
2 *81:22 *208:A3 25.3982 
*END

*D_NET *82 0.0070423
*CONN
*I *225:A1 I *D sky130_fd_sc_hd__mux2_1
*I *276:X O *D sky130_fd_sc_hd__clkbuf_1
*CAP
1 *225:A1 0.000949927
2 *276:X 0.00123372
3 *82:20 0.00218364
4 *225:A1 *231:A1 2.97808e-05
5 *225:A1 *109:23 2.06112e-05
6 *82:20 *240:D 0.000103267
7 *82:20 *245:CLK 9.90367e-05
8 *82:20 *296:A 9.69604e-05
9 *82:20 *92:12 0.000264521
10 *82:20 *99:8 0.000137145
11 *82:20 *99:14 4.35048e-05
12 *82:20 *99:22 0
13 *82:20 *100:14 1.94945e-05
14 *82:20 *100:28 5.16583e-05
15 *82:20 *103:16 4.21517e-05
16 *82:20 *108:22 0.000140001
17 *221:S *82:20 0
18 *225:S *225:A1 2.06112e-05
19 *244:D *82:20 0.00094785
20 *254:D *82:20 0
21 *255:D *82:20 8.18775e-05
22 *279:A *82:20 8.5662e-05
23 *282:A *82:20 2.46553e-05
24 *284:A *82:20 1.24381e-05
25 *285:A *225:A1 9.33462e-05
26 *285:A *82:20 0.000137315
27 *59:14 *82:20 0.00018488
28 *60:10 *82:20 3.82482e-05
*RES
1 *276:X *82:20 48.2904 
2 *82:20 *225:A1 19.4796 
*END

*D_NET *83 0.00620293
*CONN
*I *222:A1 I *D sky130_fd_sc_hd__mux2_1
*I *230:A2 I *D sky130_fd_sc_hd__mux4_1
*I *227:A1 I *D sky130_fd_sc_hd__a21oi_1
*I *277:X O *D sky130_fd_sc_hd__buf_1
*CAP
1 *222:A1 0.00013579
2 *230:A2 0.000408123
3 *227:A1 0
4 *277:X 0.000763406
5 *83:22 0.000522841
6 *83:18 0.00101391
7 *222:A1 *223:A1 1.24469e-05
8 *222:A1 *224:A1 0.00012799
9 *222:A1 *84:45 0.000235339
10 *230:A2 *230:A3 1.9549e-05
11 *230:A2 *237:A2 5.70389e-05
12 *230:A2 *85:28 0.000218281
13 *230:A2 *101:92 0.000171368
14 *83:18 *224:A1 0.000202482
15 *83:18 *226:A1 2.26973e-05
16 *83:18 *250:CLK 8.91726e-05
17 *83:18 *84:32 0.000160396
18 *83:18 *84:45 0.000289182
19 *83:18 *99:86 1.92905e-05
20 *83:22 *262:CLK 1.21258e-05
21 *208:A3 *83:18 9.19438e-05
22 *218:A0 *83:18 7.83587e-05
23 *219:B1 *83:18 0.000148196
24 *227:B1 *230:A2 9.41642e-05
25 *227:B1 *83:22 9.41642e-05
26 *228:B1 *83:18 2.79902e-05
27 *230:S0 *230:A2 0.000235473
28 *234:A1 *83:18 0.00020213
29 *235:B1 *83:18 0.000137061
30 *262:D *230:A2 5.95099e-05
31 *33:31 *83:18 0
32 *44:14 *83:18 4.22985e-05
33 *44:36 *83:18 5.66201e-05
34 *44:47 *230:A2 0
35 *72:18 *230:A2 4.08637e-05
36 *81:22 *83:18 0.000412725
*RES
1 *277:X *83:18 33.6929 
2 *83:18 *83:22 5.85714 
3 *83:22 *227:A1 9.3 
4 *83:22 *230:A2 26.8045 
5 *83:18 *222:A1 17.4964 
*END

*D_NET *84 0.0128721
*CONN
*I *223:A1 I *D sky130_fd_sc_hd__mux2_1
*I *231:A1 I *D sky130_fd_sc_hd__a21oi_1
*I *226:A1 I *D sky130_fd_sc_hd__mux4_1
*I *278:X O *D sky130_fd_sc_hd__buf_1
*CAP
1 *223:A1 0.000649873
2 *231:A1 0.00139437
3 *226:A1 3.73994e-05
4 *278:X 0.00110592
5 *84:45 0.00221185
6 *84:32 0.000836155
7 *84:24 0.00173706
8 *223:A1 *206:A 0
9 *223:A1 *223:A0 0.000120692
10 *223:A1 *224:A1 5.53406e-05
11 *223:A1 *256:CLK 0
12 *223:A1 *299:A 0.000455533
13 *223:A1 *100:43 0
14 *223:A1 *109:23 5.09361e-05
15 *223:A1 *109:27 0.000161013
16 *226:A1 *226:A2 6.05161e-06
17 *226:A1 *104:27 1.58163e-05
18 *231:A1 *295:A 5.33005e-05
19 *231:A1 *101:49 0
20 *231:A1 *105:25 0.000321327
21 *84:24 *252:CLK 2.91699e-05
22 *84:24 *288:A 0.000717297
23 *84:24 *87:16 9.41642e-05
24 *84:24 *101:51 8.6281e-05
25 *84:24 *101:61 0.000486356
26 *84:45 *226:A2 0.000124662
27 *84:45 *109:27 0.000361963
28 clk_out *84:24 6.25085e-05
29 horz_bus_out[3] *231:A1 0
30 shift_data_out *231:A1 6.37327e-05
31 *215:A1 *84:24 9.44259e-05
32 *222:A1 *223:A1 1.24469e-05
33 *222:A1 *84:45 0.000235339
34 *223:S *223:A1 0
35 *225:A1 *231:A1 2.97808e-05
36 *228:B1 *84:32 0.000185051
37 *228:B1 *84:45 1.44868e-05
38 *229:A1 *84:24 0.000239839
39 *230:S1 *231:A1 0
40 *231:B1 *231:A1 8.36075e-05
41 *238:B1 *223:A1 5.52238e-05
42 *265:A *223:A1 7.49387e-06
43 *278:A *84:24 0
44 *283:A *231:A1 0
45 *64:12 *84:24 0.000122712
46 *66:14 *84:24 8.06331e-05
47 *83:18 *226:A1 2.26973e-05
48 *83:18 *84:32 0.000160396
49 *83:18 *84:45 0.000289182
*RES
1 *278:X *84:24 49.7189 
2 *84:24 *84:32 7.26695 
3 *84:32 *226:A1 14.6125 
4 *84:32 *84:45 6.80357 
5 *84:45 *231:A1 28.2875 
6 *84:45 *223:A1 26.9161 
*END

*D_NET *85 0.00472224
*CONN
*I *287:A I *D sky130_fd_sc_hd__buf_2
*I *235:X O *D sky130_fd_sc_hd__a21o_1
*CAP
1 *287:A 0
2 *235:X 0.00140439
3 *85:28 0.00140439
4 *85:28 *209:A1 0.000205223
5 *85:28 *224:A1 0.00029799
6 *85:28 *237:A2 2.16197e-05
7 *85:28 *261:CLK 0.000334363
8 *85:28 *100:67 5.03777e-05
9 *85:28 *109:50 0.000135028
10 *208:A3 *85:28 7.56883e-05
11 *228:B1 *85:28 5.33005e-05
12 *230:A0 *85:28 2.89114e-05
13 *230:A2 *85:28 0.000218281
14 *230:S0 *85:28 2.44318e-05
15 *230:S1 *85:28 0.000222041
16 *233:A1 *85:28 9.41642e-05
17 *235:A2 *85:28 5.33005e-05
18 *259:D *85:28 5.60158e-05
19 *34:55 *85:28 4.27338e-05
*RES
1 *235:X *85:28 42.6393 
2 *85:28 *287:A 9.3 
*END

*D_NET *86 0.0105903
*CONN
*I *288:A I *D sky130_fd_sc_hd__buf_1
*I *265:X O *D sky130_fd_sc_hd__buf_2
*CAP
1 *288:A 0.00160754
2 *265:X 0.00134205
3 *86:16 0.00294959
4 *288:A *261:CLK 0.000670559
5 *288:A *87:16 0.000103977
6 *288:A *101:61 0.00042313
7 *86:16 *208:A2 9.39125e-05
8 *86:16 *236:A 0.000430398
9 *86:16 *297:A 7.02611e-05
10 *86:16 *101:32 0.000522524
11 *86:16 *104:10 0.000186361
12 clk_out *288:A 0.000263524
13 *209:S *288:A 0.000172396
14 *216:A0 *288:A 0
15 *217:A1 *288:A 0.000171375
16 *224:S *86:16 0.000151333
17 *228:A3 *288:A 7.64153e-05
18 *247:D *288:A 0
19 *278:A *288:A 0.000223558
20 *33:21 *288:A 6.47912e-05
21 *33:31 *288:A 0.00019638
22 *58:16 *288:A 2.65319e-05
23 *65:10 *288:A 0
24 *79:10 *86:16 0.000126439
25 *84:24 *288:A 0.000717297
*RES
1 *265:X *86:16 40.7821 
2 *86:16 *288:A 49.0679 
*END

*D_NET *87 0.00435902
*CONN
*I *289:A I *D sky130_fd_sc_hd__buf_2
*I *220:X O *D sky130_fd_sc_hd__mux2_1
*CAP
1 *289:A 0
2 *220:X 0.00114771
3 *87:16 0.00114771
4 *87:16 *247:CLK 5.71472e-05
5 *87:16 *293:A 9.60939e-05
6 *87:16 *108:22 0
7 horz_bus_out[0] *87:16 9.90431e-05
8 reset_out *87:16 3.67142e-05
9 *210:A1 *87:16 0.000350873
10 *211:A_N *87:16 0.000315187
11 *247:D *87:16 1.76204e-05
12 *275:A *87:16 1.04232e-05
13 *277:A *87:16 0.000207188
14 *278:A *87:16 0.000401764
15 *288:A *87:16 0.000103977
16 *44:14 *87:16 5.52302e-05
17 *62:10 *87:16 0.000162945
18 *64:12 *87:16 5.52302e-05
19 *81:22 *87:16 0
20 *84:24 *87:16 9.41642e-05
*RES
1 *220:X *87:16 43.3 
2 *87:16 *289:A 9.3 
*END

*D_NET *88 0.00326817
*CONN
*I *290:A I *D sky130_fd_sc_hd__buf_2
*I *221:X O *D sky130_fd_sc_hd__mux2_1
*CAP
1 *290:A 0.00136114
2 *221:X 0.00136114
3 *290:A *250:CLK 9.99644e-06
4 horz_bus_out[1] *290:A 3.67257e-05
5 *210:A0 *290:A 0.000139009
6 *210:S *290:A 4.47339e-05
7 *216:A1 *290:A 2.40417e-05
8 *33:31 *290:A 4.88637e-05
9 *33:33 *290:A 0.000151279
10 *66:14 *290:A 1.18622e-06
11 *67:16 *290:A 9.00448e-05
*RES
1 *221:X *290:A 37.2786 
*END

*D_NET *89 0.00157255
*CONN
*I *291:A I *D sky130_fd_sc_hd__buf_2
*I *229:X O *D sky130_fd_sc_hd__mux2_1
*CAP
1 *291:A 0.000511948
2 *229:X 0.000511948
3 *291:A *293:A 0
4 horz_bus_out[2] *291:A 2.86754e-05
5 *229:S *291:A 4.13595e-05
6 *72:12 *291:A 0.000478619
*RES
1 *229:X *291:A 34.7071 
*END

*D_NET *90 0.00043226
*CONN
*I *292:A I *D sky130_fd_sc_hd__buf_2
*I *233:X O *D sky130_fd_sc_hd__mux2_1
*CAP
1 *292:A 0.000106517
2 *233:X 0.000106517
3 horz_bus_out[3] *292:A 1.90936e-05
4 *233:A0 *292:A 4.95138e-05
5 *30:14 *292:A 0.000150618
*RES
1 *233:X *292:A 30.0821 
*END

*D_NET *91 0.00580281
*CONN
*I *293:A I *D sky130_fd_sc_hd__buf_2
*I *266:X O *D sky130_fd_sc_hd__clkbuf_1
*CAP
1 *293:A 0.0010587
2 *266:X 0.00090516
3 *91:16 0.00196386
4 horz_bus_out[1] *293:A 1.21955e-05
5 *215:A2 *91:16 6.05161e-06
6 *219:A2 *91:16 1.56e-05
7 *231:B1 *91:16 0.000281142
8 *233:S *91:16 0.000501578
9 *275:A *293:A 2.19778e-05
10 *291:A *293:A 0
11 *71:14 *91:16 0.000143549
12 *72:12 *91:16 0.000718539
13 *75:16 *293:A 0
14 *81:22 *293:A 7.83587e-05
15 *87:16 *293:A 9.60939e-05
*RES
1 *266:X *91:16 40.6393 
2 *91:16 *293:A 27.6214 
*END

*D_NET *92 0.00361232
*CONN
*I *220:A1 I *D sky130_fd_sc_hd__mux2_1
*I *213:A0 I *D sky130_fd_sc_hd__mux2_1
*I *279:X O *D sky130_fd_sc_hd__clkbuf_1
*CAP
1 *220:A1 0.000266937
2 *213:A0 0.000381658
3 *279:X 0.000422451
4 *92:12 0.00107105
5 *213:A0 *213:A1 5.52238e-05
6 *220:A1 *253:CLK 2.97081e-05
7 *92:12 *253:CLK 0.00016968
8 *92:12 *99:22 0
9 *219:A1 *213:A0 0.000246098
10 *221:S *92:12 0.000135951
11 *241:D *213:A0 0.000304387
12 *253:D *220:A1 0.000244779
13 *75:16 *220:A1 1.98839e-05
14 *82:20 *92:12 0.000264521
*RES
1 *279:X *92:12 25.175 
2 *92:12 *213:A0 25.5857 
3 *92:12 *220:A1 12.7107 
*END

*D_NET *93 0.0068698
*CONN
*I *294:A I *D sky130_fd_sc_hd__buf_2
*I *267:X O *D sky130_fd_sc_hd__clkbuf_1
*CAP
1 *294:A 5.20775e-05
2 *267:X 0.00202274
3 *93:16 0.00207482
4 *294:A *237:B1 1.61917e-05
5 *93:16 *267:A 5.7661e-06
6 *93:16 *100:10 9.60875e-05
7 *93:16 *101:21 0.000137983
8 *93:16 *101:32 0.000342302
9 *93:16 *109:23 1.67276e-05
10 carry_out *93:16 0.000664277
11 *223:S *93:16 0.000167292
12 *233:A0 *93:16 4.46186e-06
13 *238:A2_N *93:16 0.000568846
14 *239:D *93:16 0.000683797
15 *78:14 *93:16 1.64343e-05
*RES
1 *267:X *93:16 46.7286 
2 *93:16 *294:A 14.6839 
*END

*D_NET *94 0.00104638
*CONN
*I *238:B2 I *D sky130_fd_sc_hd__o2bb2a_1
*I *295:A I *D sky130_fd_sc_hd__buf_2
*I *264:Q O *D sky130_fd_sc_hd__dfxtp_1
*CAP
1 *238:B2 2.60795e-05
2 *295:A 9.31193e-05
3 *264:Q 5.54804e-05
4 *94:8 0.000174679
5 shift_clk_out *238:B2 6.98302e-05
6 shift_clk_out *295:A 0.000249479
7 *231:A1 *295:A 5.33005e-05
8 *283:A *238:B2 7.83659e-05
9 *283:A *295:A 0.000246049
*RES
1 *264:Q *94:8 14.3357 
2 *94:8 *295:A 17.4964 
3 *94:8 *238:B2 14.8357 
*END

*D_NET *95 0.00274184
*CONN
*I *296:A I *D sky130_fd_sc_hd__buf_2
*I *222:X O *D sky130_fd_sc_hd__mux2_1
*CAP
1 *296:A 0.000890302
2 *222:X 0.000890302
3 *296:A *236:A 0.000326195
4 *296:A *240:D 0.000110305
5 *296:A *274:A 8.15939e-05
6 *296:A *100:14 1.09232e-05
7 *296:A *100:22 0.000103041
8 *296:A *100:28 8.32171e-05
9 *236:B *296:A 1.39726e-05
10 *57:18 *296:A 0.000135028
11 *82:20 *296:A 9.69604e-05
*RES
1 *222:X *296:A 42.9214 
*END

*D_NET *96 0.000780584
*CONN
*I *297:A I *D sky130_fd_sc_hd__buf_2
*I *223:X O *D sky130_fd_sc_hd__mux2_1
*CAP
1 *297:A 0.000257532
2 *223:X 0.000257532
3 *297:A *298:A 5.33005e-05
4 vert_bus_out[1] *297:A 5.03616e-05
5 *265:A *297:A 9.15975e-05
6 *86:16 *297:A 7.02611e-05
*RES
1 *223:X *297:A 23.2786 
*END

*D_NET *97 0.00352788
*CONN
*I *298:A I *D sky130_fd_sc_hd__buf_2
*I *224:X O *D sky130_fd_sc_hd__mux2_1
*CAP
1 *298:A 0.00124888
2 *224:X 0.00124888
3 *298:A *223:A0 0
4 *298:A *224:A1 0.000399706
5 *298:A *256:CLK 7.79781e-06
6 *223:S *298:A 0
7 *224:S *298:A 7.78179e-05
8 *238:A1_N *298:A 5.96161e-05
9 *265:A *298:A 0.000135028
10 *297:A *298:A 5.33005e-05
11 *78:14 *298:A 0.000296844
*RES
1 *224:X *298:A 45.3679 
*END

*D_NET *98 0.00160154
*CONN
*I *299:A I *D sky130_fd_sc_hd__buf_2
*I *225:X O *D sky130_fd_sc_hd__mux2_1
*CAP
1 *299:A 0.000294544
2 *225:X 0.000294544
3 *299:A *223:A0 2.6949e-05
4 *299:A *109:23 0.000388139
5 *223:A1 *299:A 0.000455533
6 *224:S *299:A 0.00014183
7 *268:A *299:A 0
*RES
1 *225:X *299:A 35.7607 
*END

*D_NET *99 0.0122473
*CONN
*I *242:CLK I *D sky130_fd_sc_hd__dfxtp_1
*I *241:CLK I *D sky130_fd_sc_hd__dfxtp_1
*I *253:CLK I *D sky130_fd_sc_hd__dfxtp_1
*I *244:CLK I *D sky130_fd_sc_hd__dfxtp_1
*I *249:CLK I *D sky130_fd_sc_hd__dfxtp_1
*I *250:CLK I *D sky130_fd_sc_hd__dfxtp_1
*I *248:CLK I *D sky130_fd_sc_hd__dfxtp_1
*I *247:CLK I *D sky130_fd_sc_hd__dfxtp_1
*I *246:CLK I *D sky130_fd_sc_hd__dfxtp_1
*I *245:CLK I *D sky130_fd_sc_hd__dfxtp_1
*I *272:X O *D sky130_fd_sc_hd__clkbuf_2
*CAP
1 *242:CLK 0.000578268
2 *241:CLK 0
3 *253:CLK 0.000393705
4 *244:CLK 0
5 *249:CLK 0
6 *250:CLK 0.000250079
7 *248:CLK 0.000305251
8 *247:CLK 0.000107531
9 *246:CLK 5.56332e-05
10 *245:CLK 0.000323016
11 *272:X 0.000168467
12 *99:86 0.00038389
13 *99:67 0.000466171
14 *99:54 0.000522625
15 *99:43 0.00111057
16 *99:39 0.000700283
17 *99:22 0.000701653
18 *99:20 0.000890171
19 *99:14 0.000235819
20 *99:8 0.000831394
21 *245:CLK *108:22 9.9045e-05
22 *99:8 *103:16 4.5894e-05
23 *99:22 *108:22 5.57914e-05
24 *209:S *242:CLK 6.20644e-05
25 *210:A1 *99:67 2.8266e-06
26 *210:A1 *99:86 5.12344e-05
27 *212:A0 *99:86 0.000139907
28 *212:A1 *248:CLK 0.000506496
29 *212:A1 *99:54 1.25363e-05
30 *212:S *99:86 6.05161e-06
31 *216:A0 *250:CLK 0.000129994
32 *216:A1 *250:CLK 0.000203483
33 *220:A1 *253:CLK 2.97081e-05
34 *221:S *99:20 8.32242e-05
35 *221:S *99:22 0.000117063
36 *244:D *99:43 2.68554e-05
37 *246:D *99:54 8.01182e-05
38 *247:D *247:CLK 5.2198e-05
39 *248:D *248:CLK 0.000173357
40 *253:D *253:CLK 0.000122188
41 *254:D *99:8 0.000366845
42 *254:D *99:14 0.000128161
43 *254:D *99:20 0.000142797
44 *276:A *245:CLK 5.01407e-05
45 *279:A *245:CLK 0
46 *280:A *99:22 1.28585e-05
47 *286:A *245:CLK 2.89016e-05
48 *290:A *250:CLK 9.99644e-06
49 *33:31 *250:CLK 5.33334e-05
50 *33:33 *250:CLK 6.86792e-05
51 *34:8 *242:CLK 3.2065e-05
52 *58:16 *242:CLK 3.42227e-05
53 *59:14 *242:CLK 1.44042e-05
54 *61:8 *99:43 1.7473e-05
55 *62:10 *247:CLK 2.34204e-05
56 *62:10 *99:67 2.6949e-05
57 *65:10 *250:CLK 2.8266e-06
58 *81:22 *247:CLK 9.25014e-06
59 *81:22 *248:CLK 0.000300316
60 *81:22 *250:CLK 3.46549e-05
61 *81:22 *99:67 8.15095e-05
62 *81:22 *99:86 0.000168939
63 *82:20 *245:CLK 9.90367e-05
64 *82:20 *99:8 0.000137145
65 *82:20 *99:14 4.35048e-05
66 *82:20 *99:22 0
67 *83:18 *250:CLK 8.91726e-05
68 *83:18 *99:86 1.92905e-05
69 *87:16 *247:CLK 5.71472e-05
70 *92:12 *253:CLK 0.00016968
71 *92:12 *99:22 0
*RES
1 *272:X *99:8 18.7821 
2 *99:8 *99:14 6.67857 
3 *99:14 *99:20 7.89286 
4 *99:20 *99:22 7.41071 
5 *99:22 *245:CLK 19.5857 
6 *99:22 *99:39 5.03571 
7 *99:39 *99:43 7.42857 
8 *99:43 *246:CLK 10.0321 
9 *99:43 *99:54 9.14286 
10 *99:54 *247:CLK 16.2821 
11 *99:54 *99:67 1.03571 
12 *99:67 *248:CLK 22.6929 
13 *99:67 *99:86 8.10714 
14 *99:86 *250:CLK 25.1393 
15 *99:86 *249:CLK 9.3 
16 *99:39 *244:CLK 9.3 
17 *99:20 *253:CLK 20.4964 
18 *99:14 *241:CLK 9.3 
19 *99:8 *242:CLK 20.4071 
*END

*D_NET *100 0.0106248
*CONN
*I *257:CLK I *D sky130_fd_sc_hd__dfxtp_1
*I *255:CLK I *D sky130_fd_sc_hd__dfxtp_1
*I *240:CLK I *D sky130_fd_sc_hd__dfxtp_1
*I *262:CLK I *D sky130_fd_sc_hd__dfxtp_1
*I *259:CLK I *D sky130_fd_sc_hd__dfxtp_1
*I *243:CLK I *D sky130_fd_sc_hd__dfxtp_1
*I *261:CLK I *D sky130_fd_sc_hd__dfxtp_1
*I *256:CLK I *D sky130_fd_sc_hd__dfxtp_1
*I *258:CLK I *D sky130_fd_sc_hd__dfxtp_1
*I *254:CLK I *D sky130_fd_sc_hd__dfxtp_1
*I *273:X O *D sky130_fd_sc_hd__clkbuf_2
*CAP
1 *257:CLK 0
2 *255:CLK 5.80728e-05
3 *240:CLK 3.98145e-05
4 *262:CLK 0.000244365
5 *259:CLK 0.000151393
6 *243:CLK 0
7 *261:CLK 0.000680339
8 *256:CLK 0.00014449
9 *258:CLK 0
10 *254:CLK 0
11 *273:X 0.000113959
12 *100:67 0.000814853
13 *100:63 0.000415767
14 *100:43 0.00050377
15 *100:39 0.000489141
16 *100:37 0.000753684
17 *100:28 0.000646358
18 *100:22 0.0004355
19 *100:14 0.000366614
20 *100:10 0.000163854
21 *261:CLK *209:A1 0.00010063
22 *261:CLK *108:22 0.00016334
23 *100:10 *274:A 0.000210198
24 *100:14 *274:A 0.000129868
25 *100:43 *224:A1 0
26 *100:63 *224:A1 6.72808e-05
27 *100:67 *224:A1 0
28 *209:S *261:CLK 5.60962e-05
29 *222:S *262:CLK 6.05161e-06
30 *222:S *100:37 7.28784e-05
31 *222:S *100:43 0.000101545
32 *223:A1 *256:CLK 0
33 *223:A1 *100:43 0
34 *223:S *256:CLK 7.0528e-05
35 *227:B1 *262:CLK 8.55871e-05
36 *228:A2 *261:CLK 5.03772e-05
37 *228:B1 *261:CLK 1.98839e-05
38 *228:B1 *262:CLK 9.41642e-05
39 *229:A0 *261:CLK 5.01338e-05
40 *229:S *261:CLK 0.00029115
41 *238:A1_N *256:CLK 4.56437e-05
42 *238:A1_N *100:43 0.000311165
43 *254:D *100:28 5.71472e-05
44 *254:D *100:37 0.000113733
45 *255:D *255:CLK 2.89016e-05
46 *255:D *100:37 0.000140537
47 *259:D *259:CLK 0.000144186
48 *284:A *100:10 0.00022287
49 *284:A *100:14 0.000175103
50 *285:A *100:22 9.3111e-05
51 *288:A *261:CLK 0.000670559
52 *296:A *100:14 1.09232e-05
53 *296:A *100:22 0.000103041
54 *296:A *100:28 8.32171e-05
55 *298:A *256:CLK 7.79781e-06
56 *34:55 *261:CLK 1.21289e-05
57 *57:18 *261:CLK 6.64164e-05
58 *57:18 *100:43 4.25622e-05
59 *57:18 *100:63 0
60 *57:18 *100:67 8.15834e-05
61 *78:14 *256:CLK 5.84075e-05
62 *82:20 *100:14 1.94945e-05
63 *82:20 *100:28 5.16583e-05
64 *83:22 *262:CLK 1.21258e-05
65 *85:28 *261:CLK 0.000334363
66 *85:28 *100:67 5.03777e-05
67 *93:16 *100:10 9.60875e-05
*RES
1 *273:X *100:10 17.6036 
2 *100:10 *100:14 6.75 
3 *100:14 *100:22 9.76786 
4 *100:22 *100:28 7.89286 
5 *100:28 *254:CLK 9.3 
6 *100:28 *100:37 8.76786 
7 *100:37 *100:39 4.5 
8 *100:39 *100:43 7.64286 
9 *100:43 *258:CLK 13.8 
10 *100:43 *256:CLK 16.8893 
11 *100:39 *100:63 2.55357 
12 *100:63 *100:67 3.39286 
13 *100:67 *261:CLK 28.9964 
14 *100:67 *243:CLK 13.8 
15 *100:63 *259:CLK 16.3893 
16 *100:37 *262:CLK 13.5321 
17 *100:22 *240:CLK 14.3357 
18 *100:14 *255:CLK 10.2464 
19 *100:10 *257:CLK 13.8 
*END

*D_NET *101 0.0138858
*CONN
*I *263:CLK I *D sky130_fd_sc_hd__dfxtp_1
*I *264:CLK I *D sky130_fd_sc_hd__dfxtp_1
*I *260:CLK I *D sky130_fd_sc_hd__dfxtp_1
*I *251:CLK I *D sky130_fd_sc_hd__dfxtp_1
*I *252:CLK I *D sky130_fd_sc_hd__dfxtp_1
*I *272:A I *D sky130_fd_sc_hd__clkbuf_2
*I *273:A I *D sky130_fd_sc_hd__clkbuf_2
*I *267:A I *D sky130_fd_sc_hd__clkbuf_1
*I *274:X O *D sky130_fd_sc_hd__clkbuf_2
*CAP
1 *263:CLK 0.000162883
2 *264:CLK 0.000211781
3 *260:CLK 0.000121514
4 *251:CLK 0
5 *252:CLK 0.000472954
6 *272:A 0.000392344
7 *273:A 0
8 *267:A 5.81512e-05
9 *274:X 0.000101605
10 *101:92 0.000756504
11 *101:61 0.000731313
12 *101:51 0.000546903
13 *101:49 0.00158524
14 *101:32 0.00238157
15 *101:21 0.00105775
16 *101:10 0.000264642
17 *260:CLK *230:A3 8.97632e-06
18 *263:CLK *109:23 0
19 *264:CLK *224:A1 9.71197e-05
20 *272:A *104:10 9.41002e-05
21 *272:A *104:27 2.78576e-05
22 *101:32 *236:A 0.000437934
23 *101:32 *104:10 5.61616e-05
24 *101:51 *205:A 7.29646e-05
25 *101:51 *226:A2 3.42041e-05
26 *101:51 *226:A3 4.56535e-05
27 *101:92 *230:A3 0
28 vert_bus_out[0] *101:10 0.000177948
29 *215:A1 *101:61 0.000139907
30 *215:A2 *252:CLK 5.56564e-05
31 *217:A0 *101:61 3.68633e-05
32 *217:A1 *101:61 1.02821e-05
33 *218:S *101:61 0
34 *224:A0 *101:92 0.000103267
35 *224:S *264:CLK 1.21258e-05
36 *228:A3 *101:51 2.81008e-05
37 *228:A3 *101:61 2.53281e-05
38 *229:A1 *101:51 9.96717e-06
39 *230:A2 *101:92 0.000171368
40 *230:S0 *101:92 1.08359e-05
41 *230:S1 *101:92 0.000101124
42 *231:A1 *101:49 0
43 *231:A2 *264:CLK 0.000257619
44 *238:A1_N *263:CLK 5.52238e-05
45 *260:D *260:CLK 1.75642e-05
46 *263:D *263:CLK 0.000129185
47 *263:D *101:92 1.17968e-05
48 *288:A *101:61 0.00042313
49 *44:47 *101:51 0
50 *44:47 *101:92 0
51 *44:60 *101:92 0
52 *60:10 *272:A 2.78576e-05
53 *66:14 *252:CLK 0.000141724
54 *69:14 *263:CLK 0
55 *69:14 *101:92 0
56 *70:23 *101:51 0.000206247
57 *73:35 *101:92 7.68261e-05
58 *75:16 *101:61 0.000149471
59 *79:10 *101:32 0.000175892
60 *84:24 *252:CLK 2.91699e-05
61 *84:24 *101:51 8.6281e-05
62 *84:24 *101:61 0.000486356
63 *86:16 *101:32 0.000522524
64 *93:16 *267:A 5.7661e-06
65 *93:16 *101:21 0.000137983
66 *93:16 *101:32 0.000342302
*RES
1 *274:X *101:10 20.55 
2 *101:10 *267:A 10.2643 
3 *101:10 *101:21 1.76786 
4 *101:21 *273:A 9.3 
5 *101:21 *101:32 21.2411 
6 *101:32 *272:A 19.6304 
7 *101:32 *101:49 8.66867 
8 *101:49 *101:51 4.22321 
9 *101:51 *101:61 13.3214 
10 *101:61 *252:CLK 24.7464 
11 *101:61 *251:CLK 9.3 
12 *101:51 *260:CLK 15.4786 
13 *101:49 *101:92 8.47321 
14 *101:92 *264:CLK 17.6393 
15 *101:92 *263:CLK 17.4964 
*END

*D_NET *102 0.00318534
*CONN
*I *209:A0 I *D sky130_fd_sc_hd__mux2_1
*I *213:A1 I *D sky130_fd_sc_hd__mux2_1
*I *221:A1 I *D sky130_fd_sc_hd__mux2_1
*I *280:X O *D sky130_fd_sc_hd__clkbuf_1
*CAP
1 *209:A0 8.89071e-05
2 *213:A1 3.40398e-05
3 *221:A1 0
4 *280:X 0.000271505
5 *102:23 0.000406165
6 *102:8 0.000554723
7 *209:A0 *108:22 0.000139653
8 *102:23 *108:22 0.00034039
9 *210:A0 *102:8 5.52302e-05
10 *210:A0 *102:23 0.000289001
11 *211:A_N *102:23 4.29272e-05
12 *213:A0 *213:A1 5.52238e-05
13 *219:A1 *213:A1 9.60875e-05
14 *221:A0 *102:23 0.000334263
15 *221:S *102:8 0.000148395
16 *34:8 *209:A0 5.33005e-05
17 *34:12 *209:A0 0.000151333
18 *34:12 *102:23 0.000124201
*RES
1 *280:X *102:8 13.55 
2 *102:8 *221:A1 9.3 
3 *102:8 *102:23 12.9464 
4 *102:23 *213:A1 14.7464 
5 *102:23 *209:A0 16.2821 
*END

*D_NET *103 0.00568369
*CONN
*I *230:A3 I *D sky130_fd_sc_hd__mux4_1
*I *207:A I *D sky130_fd_sc_hd__inv_2
*I *208:A0 I *D sky130_fd_sc_hd__mux4_2
*I *209:A1 I *D sky130_fd_sc_hd__mux2_1
*I *281:X O *D sky130_fd_sc_hd__buf_1
*CAP
1 *230:A3 0.000613943
2 *207:A 2.37855e-05
3 *208:A0 0
4 *209:A1 0.000163601
5 *281:X 0.00105139
6 *103:40 0.000906025
7 *103:33 0.000268296
8 *103:16 0.00121499
9 *209:A1 *108:22 1.36976e-05
10 *230:A3 *205:A 0.000137983
11 *230:A3 *226:A2 3.85735e-05
12 *230:A3 *226:A3 1.02433e-05
13 *230:A3 *237:A2 1.03376e-05
14 *103:40 *224:A1 9.41642e-05
15 *208:A3 *209:A1 4.05179e-06
16 *208:A3 *103:40 0.000135028
17 *209:S *209:A1 5.71472e-05
18 *229:A1 *230:A3 3.89462e-05
19 *230:A2 *230:A3 1.9549e-05
20 *234:A1 *103:40 6.0675e-05
21 *234:B1 *103:40 0.000139913
22 *235:A2 *209:A1 4.46186e-06
23 *260:CLK *230:A3 8.97632e-06
24 *260:D *230:A3 8.52807e-05
25 *261:CLK *209:A1 0.00010063
26 *281:A *103:16 2.89016e-05
27 *33:6 *103:40 9.37026e-06
28 *33:21 *103:40 4.0001e-05
29 *34:8 *209:A1 5.52238e-05
30 *34:55 *209:A1 5.52302e-05
31 *82:20 *103:16 4.21517e-05
32 *85:28 *209:A1 0.000205223
33 *99:8 *103:16 4.5894e-05
34 *101:92 *230:A3 0
*RES
1 *281:X *103:16 23.2965 
2 *103:16 *209:A1 17.9071 
3 *103:16 *103:33 4.5 
4 *103:33 *208:A0 9.3 
5 *103:33 *103:40 5.05357 
6 *103:40 *207:A 9.72857 
7 *103:40 *230:A3 26.4696 
*END

*D_NET *104 0.00749365
*CONN
*I *236:A I *D sky130_fd_sc_hd__nand2_1
*I *226:A3 I *D sky130_fd_sc_hd__mux4_1
*I *205:A I *D sky130_fd_sc_hd__inv_2
*I *208:A2 I *D sky130_fd_sc_hd__mux4_2
*I *282:X O *D sky130_fd_sc_hd__buf_1
*CAP
1 *236:A 0.000282493
2 *226:A3 2.40532e-05
3 *205:A 0.000686537
4 *208:A2 0.00011275
5 *282:X 0.000358203
6 *104:27 0.00174145
7 *104:10 0.00122157
8 *104:8 0.000718662
9 *226:A3 *226:A2 9.54798e-06
10 *104:27 *226:A2 5.20359e-06
11 *222:S *236:A 0
12 *226:A1 *104:27 1.58163e-05
13 *226:S1 *104:27 8.17039e-05
14 *229:A1 *205:A 7.14469e-05
15 *229:A1 *226:A3 8.6229e-06
16 *230:A3 *205:A 0.000137983
17 *230:A3 *226:A3 1.02433e-05
18 *236:B *236:A 6.20656e-05
19 *243:D *104:27 1.64343e-05
20 *272:A *104:10 9.41002e-05
21 *272:A *104:27 2.78576e-05
22 *282:A *104:8 4.92174e-05
23 *296:A *236:A 0.000326195
24 *44:47 *104:27 4.77415e-05
25 *59:14 *208:A2 5.33005e-05
26 *71:14 *205:A 7.07155e-06
27 *86:16 *208:A2 9.39125e-05
28 *86:16 *236:A 0.000430398
29 *86:16 *104:10 0.000186361
30 *101:32 *236:A 0.000437934
31 *101:32 *104:10 5.61616e-05
32 *101:51 *205:A 7.29646e-05
33 *101:51 *226:A3 4.56535e-05
*RES
1 *282:X *104:8 17.6214 
2 *104:8 *104:10 2.55357 
3 *104:10 *208:A2 15.675 
4 *104:10 *104:27 20.2143 
5 *104:27 *205:A 21.8536 
6 *104:27 *226:A3 14.5321 
7 *104:8 *236:A 23.2286 
*END

*D_NET *105 0.00784
*CONN
*I *266:A I *D sky130_fd_sc_hd__clkbuf_1
*I *206:A I *D sky130_fd_sc_hd__inv_2
*I *237:B1 I *D sky130_fd_sc_hd__a21oi_1
*I *283:X O *D sky130_fd_sc_hd__buf_1
*CAP
1 *266:A 4.17249e-05
2 *206:A 0.00117965
3 *237:B1 0.000146958
4 *283:X 0.000439153
5 *105:25 0.00180009
6 *105:10 0.00116483
7 *223:A1 *206:A 0
8 *231:A1 *105:25 0.000321327
9 *231:B1 *206:A 1.21258e-05
10 *231:B1 *105:25 6.22596e-05
11 *238:B1 *206:A 0.000621848
12 *239:CLK *206:A 0.000551264
13 *265:A *206:A 0.000261246
14 *268:A *206:A 0.000144773
15 *269:A *206:A 5.03772e-05
16 *283:A *105:10 0.000582512
17 *283:A *105:25 0.000283187
18 *294:A *237:B1 1.61917e-05
19 *30:14 *237:B1 0.0001399
20 *30:14 *105:10 2.05823e-05
*RES
1 *283:X *105:10 23.3893 
2 *105:10 *237:B1 16.3893 
3 *105:10 *105:25 13.3214 
4 *105:25 *206:A 38.4071 
5 *105:25 *266:A 10.0321 
*END

*D_NET *106 0.00120294
*CONN
*I *274:A I *D sky130_fd_sc_hd__clkbuf_2
*I *284:X O *D sky130_fd_sc_hd__clkbuf_1
*CAP
1 *274:A 0.000283137
2 *284:X 0.000283137
3 vert_bus_out[0] *274:A 0.000181368
4 *284:A *274:A 3.36333e-05
5 *296:A *274:A 8.15939e-05
6 *100:10 *274:A 0.000210198
7 *100:14 *274:A 0.000129868
*RES
1 *284:X *274:A 35.35 
*END

*D_NET *107 0.0002938
*CONN
*I *240:D I *D sky130_fd_sc_hd__dfxtp_1
*I *285:X O *D sky130_fd_sc_hd__clkbuf_1
*CAP
1 *240:D 4.01139e-05
2 *285:X 4.01139e-05
3 *296:A *240:D 0.000110305
4 *82:20 *240:D 0.000103267
*RES
1 *285:X *240:D 29.1045 
*END

*D_NET *108 0.0084129
*CONN
*I *224:A1 I *D sky130_fd_sc_hd__mux2_1
*I *208:A1 I *D sky130_fd_sc_hd__mux4_2
*I *286:X O *D sky130_fd_sc_hd__clkbuf_1
*CAP
1 *224:A1 0.000760472
2 *208:A1 2.67063e-05
3 *286:X 0.00167455
4 *108:24 0.000787178
5 *108:22 0.00167455
6 *208:A3 *208:A1 5.33005e-05
7 *208:A3 *224:A1 0.000164619
8 *209:A0 *108:22 0.000139653
9 *209:A1 *108:22 1.36976e-05
10 *211:A_N *108:22 0.000174228
11 *211:B *108:22 7.83659e-05
12 *212:A1 *108:22 9.25014e-06
13 *213:S *108:22 2.84398e-05
14 *222:A1 *224:A1 0.00012799
15 *222:S *224:A1 3.34672e-05
16 *223:A1 *224:A1 5.53406e-05
17 *224:S *224:A1 0.000338849
18 *235:A2 *108:22 0
19 *245:CLK *108:22 9.9045e-05
20 *261:CLK *108:22 0.00016334
21 *264:CLK *224:A1 9.71197e-05
22 *277:A *108:22 1.69115e-05
23 *279:A *108:22 9.0145e-05
24 *298:A *224:A1 0.000399706
25 *33:6 *224:A1 6.94399e-06
26 *34:12 *108:22 1.08359e-05
27 *57:18 *108:22 0.000190089
28 *82:20 *108:22 0.000140001
29 *83:18 *224:A1 0.000202482
30 *85:28 *224:A1 0.00029799
31 *87:16 *108:22 0
32 *99:22 *108:22 5.57914e-05
33 *100:43 *224:A1 0
34 *100:63 *224:A1 6.72808e-05
35 *100:67 *224:A1 0
36 *102:23 *108:22 0.00034039
37 *103:40 *224:A1 9.41642e-05
*RES
1 *286:X *108:22 47.7464 
2 *108:22 *108:24 4.5 
3 *108:24 *208:A1 9.83571 
4 *108:24 *224:A1 38.9786 
*END

*D_NET *109 0.00790398
*CONN
*I *225:A0 I *D sky130_fd_sc_hd__mux2_1
*I *237:A2 I *D sky130_fd_sc_hd__a21oi_1
*I *230:A1 I *D sky130_fd_sc_hd__mux4_1
*I *226:A2 I *D sky130_fd_sc_hd__mux4_1
*I *223:A0 I *D sky130_fd_sc_hd__mux2_1
*I *239:Q O *D sky130_fd_sc_hd__dfxtp_1
*CAP
1 *225:A0 0
2 *237:A2 0.000955441
3 *230:A1 0
4 *226:A2 0.000466041
5 *223:A0 0.000137809
6 *239:Q 0
7 *109:50 0.00100543
8 *109:27 0.000761184
9 *109:23 0.000664149
10 *109:4 0.0005568
11 *223:A1 *223:A0 0.000120692
12 *223:A1 *109:23 5.09361e-05
13 *223:A1 *109:27 0.000161013
14 *223:S *223:A0 4.48113e-05
15 *225:A1 *109:23 2.06112e-05
16 *225:S *109:23 5.01448e-05
17 *226:A1 *226:A2 6.05161e-06
18 *226:A3 *226:A2 9.54798e-06
19 *226:S1 *226:A2 8.77505e-05
20 *228:B1 *226:A2 0.000121423
21 *228:B1 *109:27 0.000241205
22 *229:A1 *226:A2 1.14548e-05
23 *230:A0 *237:A2 5.52302e-05
24 *230:A2 *237:A2 5.70389e-05
25 *230:A3 *226:A2 3.85735e-05
26 *230:A3 *237:A2 1.03376e-05
27 *230:S0 *237:A2 3.97519e-05
28 *230:S1 *237:A2 0.000209713
29 *232:A1 *237:A2 2.59355e-05
30 *233:A0 *237:A2 0.000147358
31 *259:D *237:A2 1.24368e-05
32 *259:D *109:50 5.96516e-05
33 *263:CLK *109:23 0
34 *265:A *223:A0 0.000274288
35 *298:A *223:A0 0
36 *299:A *223:A0 2.6949e-05
37 *299:A *109:23 0.000388139
38 *30:14 *237:A2 6.05161e-06
39 *69:14 *109:23 2.28473e-05
40 *69:14 *109:27 7.7973e-05
41 *70:12 *226:A2 0.000224583
42 *70:23 *226:A2 5.52238e-05
43 *84:45 *226:A2 0.000124662
44 *84:45 *109:27 0.000361963
45 *85:28 *237:A2 2.16197e-05
46 *85:28 *109:50 0.000135028
47 *93:16 *109:23 1.67276e-05
48 *101:51 *226:A2 3.42041e-05
49 *104:27 *226:A2 5.20359e-06
*RES
1 *239:Q *109:4 9.3 
2 *109:4 *223:A0 22.8357 
3 *109:4 *109:23 12.7679 
4 *109:23 *109:27 7.33929 
5 *109:27 *226:A2 30.358 
6 *109:27 *109:50 5.85714 
7 *109:50 *230:A1 9.3 
8 *109:50 *237:A2 30.925 
9 *109:23 *225:A0 13.8 
*END
