*SPEF "ieee 1481-1999"
*DESIGN "CLB"
*DATE "15:48:21 Saturday October 03, 2026"
*VENDOR "The OpenROAD Project"
*PROGRAM "OpenROAD"
*VERSION "edf00dff99f6c40d67a30c0e22a8191c5d2ed9d6"
*DESIGN_FLOW "NAME_SCOPE LOCAL" "PIN_CAP NONE"
*DIVIDER /
*DELIMITER :
*BUS_DELIMITER []
*T_UNIT 1 NS
*C_UNIT 1 PF
*R_UNIT 1 OHM
*L_UNIT 1 HENRY

*NAME_MAP
*3 carry_in
*4 carry_out
*5 clk
*6 clk_out
*7 horz_bus_in[0]
*8 horz_bus_in[1]
*9 horz_bus_in[2]
*10 horz_bus_in[3]
*11 horz_bus_out[0]
*12 horz_bus_out[1]
*13 horz_bus_out[2]
*14 horz_bus_out[3]
*15 reset
*16 reset_out
*17 shift_clk
*18 shift_clk_out
*19 shift_data_in
*20 shift_data_out
*21 vert_bus_in[0]
*22 vert_bus_in[1]
*23 vert_bus_in[2]
*24 vert_bus_in[3]
*25 vert_bus_out[0]
*26 vert_bus_out[1]
*27 vert_bus_out[2]
*28 vert_bus_out[3]
*29 _00_
*30 _01_
*31 _02_
*32 _03_
*33 _04_
*34 _05_
*35 _06_
*36 _07_
*37 _08_
*38 _09_
*39 _10_
*40 _11_
*41 _12_
*42 _13_
*43 _14_
*44 _15_
*45 _16_
*46 _17_
*47 _18_
*48 _19_
*49 _20_
*50 _21_
*51 _22_
*52 _23_
*53 _24_
*54 clknet_0_clk
*55 clknet_1_0__leaf_clk
*56 clknet_1_1__leaf_clk
*57 input_mux_a_sel
*58 input_mux_b_sel
*59 input_mux_c_sel\[0\]
*60 input_mux_c_sel\[1\]
*61 lut\[0\]
*62 lut\[1\]
*63 lut\[2\]
*64 lut\[3\]
*65 lut\[4\]
*66 lut\[5\]
*67 lut\[6\]
*68 lut\[7\]
*69 major_horz2_sel\[0\]
*70 major_horz2_sel\[1\]
*71 major_horz2_sel\[2\]
*72 major_horz3_sel\[0\]
*73 major_horz3_sel\[1\]
*74 major_horz3_sel\[2\]
*75 minor_horz_sel\[0\]
*76 minor_horz_sel\[1\]
*77 minor_vert_sel\[0\]
*78 minor_vert_sel\[1\]
*79 minor_vert_sel\[2\]
*80 minor_vert_sel\[3\]
*81 net1
*82 net10
*83 net11
*84 net12
*85 net13
*86 net14
*87 net15
*88 net16
*89 net17
*90 net18
*91 net19
*92 net2
*93 net20
*94 net21
*95 net22
*96 net23
*97 net24
*98 net25
*99 net26
*100 net27
*101 net28
*102 net3
*103 net4
*104 net5
*105 net6
*106 net7
*107 net8
*108 net9
*109 operation_ff
*110 FILLER_0_38
*111 FILLER_0_48
*112 FILLER_0_54
*113 FILLER_0_57
*114 FILLER_11_14
*115 FILLER_11_51
*116 FILLER_11_61
*117 FILLER_12_38
*118 FILLER_12_61
*119 FILLER_13_3
*120 FILLER_13_61
*121 FILLER_14_3
*122 FILLER_15_27
*123 FILLER_15_29
*124 FILLER_15_3
*125 FILLER_15_61
*126 FILLER_1_57
*127 FILLER_1_9
*128 FILLER_2_61
*129 FILLER_3_38
*130 FILLER_3_57
*131 FILLER_4_21
*132 FILLER_4_45
*133 FILLER_5_17
*134 FILLER_5_39
*135 FILLER_5_57
*136 FILLER_5_61
*137 FILLER_5_7
*138 FILLER_6_29
*139 FILLER_6_47
*140 FILLER_7_30
*141 FILLER_7_52
*142 FILLER_7_6
*143 FILLER_7_60
*144 FILLER_8_27
*145 FILLER_8_29
*146 FILLER_8_45
*147 FILLER_8_6
*148 FILLER_9_3
*149 FILLER_9_47
*150 FILLER_9_57
*151 PHY_EDGE_ROW_0_Left_16
*152 PHY_EDGE_ROW_0_Right_0
*153 PHY_EDGE_ROW_10_Left_26
*154 PHY_EDGE_ROW_10_Right_10
*155 PHY_EDGE_ROW_11_Left_27
*156 PHY_EDGE_ROW_11_Right_11
*157 PHY_EDGE_ROW_12_Left_28
*158 PHY_EDGE_ROW_12_Right_12
*159 PHY_EDGE_ROW_13_Left_29
*160 PHY_EDGE_ROW_13_Right_13
*161 PHY_EDGE_ROW_14_Left_30
*162 PHY_EDGE_ROW_14_Right_14
*163 PHY_EDGE_ROW_15_Left_31
*164 PHY_EDGE_ROW_15_Right_15
*165 PHY_EDGE_ROW_1_Left_17
*166 PHY_EDGE_ROW_1_Right_1
*167 PHY_EDGE_ROW_2_Left_18
*168 PHY_EDGE_ROW_2_Right_2
*169 PHY_EDGE_ROW_3_Left_19
*170 PHY_EDGE_ROW_3_Right_3
*171 PHY_EDGE_ROW_4_Left_20
*172 PHY_EDGE_ROW_4_Right_4
*173 PHY_EDGE_ROW_5_Left_21
*174 PHY_EDGE_ROW_5_Right_5
*175 PHY_EDGE_ROW_6_Left_22
*176 PHY_EDGE_ROW_6_Right_6
*177 PHY_EDGE_ROW_7_Left_23
*178 PHY_EDGE_ROW_7_Right_7
*179 PHY_EDGE_ROW_8_Left_24
*180 PHY_EDGE_ROW_8_Right_8
*181 PHY_EDGE_ROW_9_Left_25
*182 PHY_EDGE_ROW_9_Right_9
*183 TAP_TAPCELL_ROW_0_32
*184 TAP_TAPCELL_ROW_0_33
*185 TAP_TAPCELL_ROW_10_43
*186 TAP_TAPCELL_ROW_11_44
*187 TAP_TAPCELL_ROW_12_45
*188 TAP_TAPCELL_ROW_13_46
*189 TAP_TAPCELL_ROW_14_47
*190 TAP_TAPCELL_ROW_15_48
*191 TAP_TAPCELL_ROW_15_49
*192 TAP_TAPCELL_ROW_1_34
*193 TAP_TAPCELL_ROW_2_35
*194 TAP_TAPCELL_ROW_3_36
*195 TAP_TAPCELL_ROW_4_37
*196 TAP_TAPCELL_ROW_5_38
*197 TAP_TAPCELL_ROW_6_39
*198 TAP_TAPCELL_ROW_7_40
*199 TAP_TAPCELL_ROW_8_41
*200 TAP_TAPCELL_ROW_9_42
*201 _25_
*202 _26_
*203 _27_
*204 _28_
*205 _29_
*206 _30_
*207 _31_
*208 _32_
*209 _33_
*210 _34_
*211 _35_
*212 _36_
*213 _37_
*214 _38_
*215 _39_
*216 _40_
*217 _41_
*218 _42_
*219 _43_
*220 _44_
*221 _45_
*222 _46_
*223 _47_
*224 _48_
*225 _49_
*226 _50_
*227 _51_
*228 _52_
*229 _53_
*230 _54_
*231 _55_
*232 _56_
*233 _57_
*234 _58_
*235 _59_
*236 _60_
*237 _61_
*238 _62_
*239 _63_
*240 _64_
*241 _65_
*242 _66_
*243 _67_
*244 _68_
*245 _69_
*246 _70_
*247 _71_
*248 _72_
*249 _73_
*250 _74_
*251 _75_
*252 _76_
*253 _77_
*254 _78_
*255 _79_
*256 _80_
*257 _81_
*258 _82_
*259 _83_
*260 _84_
*261 _85_
*262 _86_
*263 _87_
*264 clkbuf_0_clk
*265 clkbuf_1_0__f_clk
*266 clkbuf_1_1__f_clk
*267 clkload0
*268 fanout26
*269 fanout27
*270 fanout28
*271 input1
*272 input10
*273 input11
*274 input12
*275 input2
*276 input3
*277 input4
*278 input5
*279 input6
*280 input7
*281 input8
*282 input9
*283 output13
*284 output14
*285 output15
*286 output16
*287 output17
*288 output18
*289 output19
*290 output20
*291 output21
*292 output22
*293 output23
*294 output24
*295 output25

*PORTS
carry_in I
carry_out O
clk I
clk_out O
horz_bus_in[0] I
horz_bus_in[1] I
horz_bus_in[2] I
horz_bus_in[3] I
horz_bus_out[0] O
horz_bus_out[1] O
horz_bus_out[2] O
horz_bus_out[3] O
reset I
reset_out O
shift_clk I
shift_clk_out O
shift_data_in I
shift_data_out O
vert_bus_in[0] I
vert_bus_in[1] I
vert_bus_in[2] I
vert_bus_in[3] I
vert_bus_out[0] O
vert_bus_out[1] O
vert_bus_out[2] O
vert_bus_out[3] O

*D_NET *3 0.000640755
*CONN
*P carry_in I
*I *271:A I *D sky130_fd_sc_hd__clkbuf_1
*CAP
1 carry_in 0.000154941
2 *271:A 0.000154941
3 *271:A *284:A 0.000122331
4 *271:A *289:A 0.000186099
5 *271:A *84:30 2.24423e-05
*RES
1 carry_in *271:A 7.215 
*END

*D_NET *4 0.00293438
*CONN
*P carry_out O
*I *283:X O *D sky130_fd_sc_hd__buf_2
*CAP
1 carry_out 0.000857856
2 *283:X 0.000857856
3 carry_out horz_bus_out[3] 1.35862e-05
4 carry_out shift_clk_out 3.18568e-05
5 carry_out *228:B1 0.000207797
6 carry_out *229:A0 8.42239e-05
7 carry_out *233:A1 7.6664e-05
8 carry_out *233:A2 0
9 carry_out *262:A 0.000585033
10 carry_out *284:A 0.000107245
11 carry_out *289:A 3.86607e-05
12 carry_out *30:14 1.43805e-05
13 carry_out *56:12 0
14 carry_out *72:10 5.92191e-05
*RES
1 *283:X carry_out 20.55 
*END

*D_NET *5 0.000353632
*CONN
*P clk I
*I *264:A I *D sky130_fd_sc_hd__clkbuf_16
*CAP
1 clk 0.000119919
2 *264:A 0.000119919
3 *264:A vert_bus_out[3] 1.88904e-05
4 *264:A *267:A 4.66108e-05
5 *264:A *279:A 4.82919e-05
*RES
1 clk *264:A 5.37 
*END

*D_NET *6 0.00142037
*CONN
*P clk_out O
*I *284:X O *D sky130_fd_sc_hd__buf_1
*CAP
1 clk_out 0.00052117
2 *284:X 0.00052117
3 clk_out *212:A0 9.76717e-05
4 clk_out *243:D 0.000130411
5 clk_out *274:A 1.54689e-05
6 clk_out *33:24 0.00012309
7 clk_out *61:12 0
8 clk_out *84:30 1.1392e-05
*RES
1 *284:X clk_out 11.175 
*END

*D_NET *7 0.000848618
*CONN
*P horz_bus_in[0] I
*I *275:A I *D sky130_fd_sc_hd__clkbuf_1
*CAP
1 horz_bus_in[0] 0.000388953
2 *275:A 0.000388953
3 *275:A *276:A 4.82863e-05
4 *275:A *282:A 2.24252e-05
5 *275:A *285:A 0
*RES
1 horz_bus_in[0] *275:A 7.4043 
*END

*D_NET *8 0.00126293
*CONN
*P horz_bus_in[1] I
*I *276:A I *D sky130_fd_sc_hd__clkbuf_1
*CAP
1 horz_bus_in[1] 0.000528099
2 *276:A 0.000528099
3 *276:A *242:CLK 0
4 *276:A *102:8 0.000158441
5 *275:A *276:A 4.82863e-05
*RES
1 horz_bus_in[1] *276:A 10.0003 
*END

*D_NET *9 0.00113968
*CONN
*P horz_bus_in[2] I
*I *277:A I *D sky130_fd_sc_hd__clkbuf_1
*CAP
1 horz_bus_in[2] 0.000439463
2 *277:A 0.000439463
3 *277:A *205:A0 1.93765e-05
4 *277:A *238:D 0.000130406
5 *277:A *268:A 2.86293e-05
6 *277:A *103:12 8.23457e-05
*RES
1 horz_bus_in[2] *277:A 8.4773 
*END

*D_NET *10 0.000919567
*CONN
*P horz_bus_in[3] I
*I *278:A I *D sky130_fd_sc_hd__buf_1
*CAP
1 horz_bus_in[3] 0.000335033
2 *278:A 0.000335033
3 *278:A *238:D 8.48143e-05
4 *278:A *100:26 0.000119066
5 *278:A *104:6 4.56204e-05
*RES
1 horz_bus_in[3] *278:A 6.9093 
*END

*D_NET *11 0.000386083
*CONN
*P horz_bus_out[0] O
*I *285:X O *D sky130_fd_sc_hd__buf_2
*CAP
1 horz_bus_out[0] 0.000171188
2 *285:X 0.000171188
3 horz_bus_out[0] *285:A 2.75229e-05
4 horz_bus_out[0] *289:A 1.61831e-05
*RES
1 *285:X horz_bus_out[0] 5.5789 
*END

*D_NET *12 0.000412896
*CONN
*P horz_bus_out[1] O
*I *286:X O *D sky130_fd_sc_hd__buf_2
*CAP
1 horz_bus_out[1] 0.000188512
2 *286:X 0.000188512
3 horz_bus_out[1] *204:A3 1.35106e-05
4 horz_bus_out[1] *286:A 1.4399e-05
5 horz_bus_out[1] *289:A 7.96104e-06
*RES
1 *286:X horz_bus_out[1] 5.5789 
*END

*D_NET *13 0.000442061
*CONN
*P horz_bus_out[2] O
*I *287:X O *D sky130_fd_sc_hd__buf_2
*CAP
1 horz_bus_out[2] 0.000204962
2 *287:X 0.000204962
3 horz_bus_out[2] *256:CLK 8.66976e-06
4 horz_bus_out[2] *287:A 5.83121e-06
5 horz_bus_out[2] *289:A 1.7635e-05
*RES
1 *287:X horz_bus_out[2] 5.6839 
*END

*D_NET *14 0.000395328
*CONN
*P horz_bus_out[3] O
*I *288:X O *D sky130_fd_sc_hd__buf_2
*CAP
1 horz_bus_out[3] 0.000176608
2 *288:X 0.000176608
3 horz_bus_out[3] *289:A 7.96104e-06
4 horz_bus_out[3] *30:14 2.05641e-05
5 carry_out horz_bus_out[3] 1.35862e-05
*RES
1 *288:X horz_bus_out[3] 5.5789 
*END

*D_NET *15 0.00378745
*CONN
*P reset I
*I *279:A I *D sky130_fd_sc_hd__buf_1
*CAP
1 reset 0.00122938
2 *279:A 0.00122938
3 *279:A vert_bus_out[0] 0.000290948
4 *279:A *202:A 0.000201503
5 *279:A *234:B1 0.000134922
6 *279:A *251:D 0.000258148
7 *279:A *254:CLK 8.40269e-05
8 *279:A *267:A 0.000280032
9 *279:A *78:10 2.49909e-05
10 *279:A *105:10 5.83121e-06
11 *264:A *279:A 4.82919e-05
*RES
1 reset *279:A 27.67 
*END

*D_NET *16 0.000250576
*CONN
*P reset_out O
*I *289:X O *D sky130_fd_sc_hd__buf_2
*CAP
1 reset_out 8.44274e-05
2 *289:X 8.44274e-05
3 reset_out *212:A1 5.4003e-05
4 reset_out *285:A 2.77183e-05
*RES
1 *289:X reset_out 5.085 
*END

*D_NET *17 0.00399993
*CONN
*P shift_clk I
*I *280:A I *D sky130_fd_sc_hd__clkbuf_1
*CAP
1 shift_clk 0.0011482
2 *280:A 0.0011482
3 *280:A *202:A 0.000131264
4 *280:A *220:A0 0.000183751
5 *280:A *220:A1 0.000594005
6 *280:A *252:D 3.47668e-05
7 *280:A *253:D 0.000173183
8 *280:A *270:A 1.56428e-05
9 *280:A *294:A 6.14433e-05
10 *280:A *78:10 1.84195e-05
11 *280:A *79:14 3.76596e-05
12 *280:A *83:22 8.48074e-05
13 *280:A *83:41 0.000247027
14 *280:A *104:29 0.000121561
15 *280:A *109:12 0
16 *280:A *109:14 0
*RES
1 shift_clk *280:A 20.0844 
*END

*D_NET *18 0.00424207
*CONN
*P shift_clk_out O
*I *290:X O *D sky130_fd_sc_hd__buf_2
*CAP
1 shift_clk_out 0.00143176
2 *290:X 0.00143176
3 shift_clk_out vert_bus_out[3] 0
4 shift_clk_out *222:A2 0.000212993
5 shift_clk_out *226:A3 1.07797e-05
6 shift_clk_out *234:B1 7.04912e-05
7 shift_clk_out *234:B2 0.000524926
8 shift_clk_out *235:CLK 1.96989e-05
9 shift_clk_out *283:A 8.34281e-06
10 shift_clk_out *295:A 6.86914e-05
11 shift_clk_out *73:12 0.000113972
12 shift_clk_out *94:8 0.000316806
13 carry_out shift_clk_out 3.18568e-05
*RES
1 *290:X shift_clk_out 22.0662 
*END

*D_NET *19 0.000829477
*CONN
*P shift_data_in I
*I *281:A I *D sky130_fd_sc_hd__clkbuf_1
*CAP
1 shift_data_in 0.000311968
2 *281:A 0.000311968
3 *281:A vert_bus_out[0] 0.000108619
4 *281:A *236:D 1.19928e-05
5 *281:A *258:CLK 3.83194e-05
6 *281:A *101:8 4.66108e-05
*RES
1 shift_data_in *281:A 6.6543 
*END

*D_NET *20 0.000736547
*CONN
*P shift_data_out O
*I *291:X O *D sky130_fd_sc_hd__buf_2
*CAP
1 shift_data_out 0.000270649
2 *291:X 0.000270649
3 shift_data_out *227:A1 4.66108e-05
4 shift_data_out *229:S 0.000148638
*RES
1 *291:X shift_data_out 6.53543 
*END

*D_NET *21 0.000161593
*CONN
*P vert_bus_in[0] I
*I *282:A I *D sky130_fd_sc_hd__clkbuf_1
*CAP
1 vert_bus_in[0] 4.55466e-05
2 *282:A 4.55466e-05
3 *282:A *285:A 4.80748e-05
4 *275:A *282:A 2.24252e-05
*RES
1 vert_bus_in[0] *282:A 5.1 
*END

*D_NET *22 0.000762595
*CONN
*P vert_bus_in[1] I
*I *272:A I *D sky130_fd_sc_hd__clkbuf_1
*CAP
1 vert_bus_in[1] 0.000183901
2 *272:A 0.000183901
3 *272:A *207:A_N 0
4 *272:A *273:A 0.000119762
5 *272:A *108:22 0.000275032
*RES
1 vert_bus_in[1] *272:A 7.38 
*END

*D_NET *23 0.00111993
*CONN
*P vert_bus_in[2] I
*I *273:A I *D sky130_fd_sc_hd__buf_1
*CAP
1 vert_bus_in[2] 0.000205357
2 *273:A 0.000205357
3 *273:A *206:A1 2.54431e-05
4 *273:A *62:6 6.27059e-05
5 *273:A *83:22 0.000407263
6 *273:A *108:22 9.40363e-05
7 *272:A *273:A 0.000119762
*RES
1 vert_bus_in[2] *273:A 9.345 
*END

*D_NET *24 0.00172154
*CONN
*P vert_bus_in[3] I
*I *274:A I *D sky130_fd_sc_hd__buf_1
*CAP
1 vert_bus_in[3] 0.000698492
2 *274:A 0.000698492
3 *274:A *207:B 3.86529e-05
4 *274:A *208:A0 8.22234e-06
5 *274:A *241:CLK 0
6 *274:A *243:D 0.000185899
7 *274:A *284:A 0
8 *274:A *61:12 7.63125e-05
9 *274:A *83:22 0
10 clk_out *274:A 1.54689e-05
*RES
1 vert_bus_in[3] *274:A 12.84 
*END

*D_NET *25 0.00220118
*CONN
*P vert_bus_out[0] O
*I *292:X O *D sky130_fd_sc_hd__buf_2
*CAP
1 vert_bus_out[0] 0.000520299
2 *292:X 0.000520299
3 vert_bus_out[0] *236:D 5.83121e-06
4 vert_bus_out[0] *251:CLK 8.48525e-05
5 vert_bus_out[0] *258:CLK 9.80032e-06
6 vert_bus_out[0] *268:A 5.16348e-05
7 vert_bus_out[0] *269:A 0.000289698
8 vert_bus_out[0] *270:A 0.000118081
9 vert_bus_out[0] *101:19 0.000201114
10 *279:A vert_bus_out[0] 0.000290948
11 *281:A vert_bus_out[0] 0.000108619
*RES
1 *292:X vert_bus_out[0] 15.18 
*END

*D_NET *26 0.000748153
*CONN
*P vert_bus_out[1] O
*I *293:X O *D sky130_fd_sc_hd__buf_2
*CAP
1 vert_bus_out[1] 0.000339967
2 *293:X 0.000339967
3 vert_bus_out[1] *253:CLK 1.74678e-05
4 vert_bus_out[1] *293:A 5.0751e-05
*RES
1 *293:X vert_bus_out[1] 7.59 
*END

*D_NET *27 0.000146472
*CONN
*P vert_bus_out[2] O
*I *294:X O *D sky130_fd_sc_hd__buf_2
*CAP
1 vert_bus_out[2] 7.32358e-05
2 *294:X 7.32358e-05
*RES
1 *294:X vert_bus_out[2] 4.575 
*END

*D_NET *28 0.000726218
*CONN
*P vert_bus_out[3] O
*I *295:X O *D sky130_fd_sc_hd__buf_2
*CAP
1 vert_bus_out[3] 0.00034372
2 *295:X 0.00034372
3 vert_bus_out[3] *233:A2 1.98869e-05
4 vert_bus_out[3] *294:A 0
5 shift_clk_out vert_bus_out[3] 0
6 *264:A vert_bus_out[3] 1.88904e-05
*RES
1 *295:X vert_bus_out[3] 8.625 
*END

*D_NET *29 0.0016282
*CONN
*I *235:D I *D sky130_fd_sc_hd__dfxtp_1
*I *234:X O *D sky130_fd_sc_hd__o2bb2a_1
*CAP
1 *235:D 0.000425239
2 *234:X 0.000425239
3 *235:D *219:A1 0
4 *235:D *232:A 1.12578e-05
5 *235:D *232:B 7.00889e-06
6 *235:D *234:A1_N 8.40213e-05
7 *235:D *234:A2_N 0.000467534
8 *235:D *258:D 0.00013521
9 *235:D *295:A 3.37099e-05
10 *235:D *44:45 2.46089e-05
11 *235:D *84:41 0
12 *235:D *105:25 1.43717e-05
*RES
1 *234:X *235:D 16.2337 
*END

*D_NET *30 0.00308423
*CONN
*I *233:A1 I *D sky130_fd_sc_hd__a21oi_1
*I *228:A1 I *D sky130_fd_sc_hd__a31oi_1
*I *201:Y O *D sky130_fd_sc_hd__inv_2
*CAP
1 *233:A1 6.09303e-05
2 *228:A1 0
3 *201:Y 0.000820229
4 *30:14 0.00088116
5 *233:A1 *233:A2 9.50342e-06
6 *233:A1 *260:D 9.32135e-05
7 *30:14 *225:A0 9.46859e-06
8 *30:14 *227:A2 0.000158976
9 *30:14 *228:B1 2.35349e-05
10 *30:14 *229:A0 0.000314028
11 *30:14 *229:S 9.50114e-05
12 *30:14 *257:CLK 7.47645e-05
13 *30:14 *257:D 1.43717e-05
14 *30:14 *260:D 1.26626e-05
15 *30:14 *288:A 6.47516e-05
16 *30:14 *289:A 8.78674e-05
17 *30:14 *290:A 0.000252146
18 carry_out *233:A1 7.6664e-05
19 carry_out *30:14 1.43805e-05
20 horz_bus_out[3] *30:14 2.05641e-05
*RES
1 *201:Y *30:14 18.12 
2 *30:14 *228:A1 3.6 
3 *30:14 *233:A1 5.745 
*END

*D_NET *31 0.00471326
*CONN
*I *234:B1 I *D sky130_fd_sc_hd__o2bb2a_1
*I *202:Y O *D sky130_fd_sc_hd__inv_2
*CAP
1 *234:B1 0.00149233
2 *202:Y 0.00149233
3 *234:B1 *219:A1 0
4 *234:B1 *226:S1 0.000114492
5 *234:B1 *265:A 0.000325343
6 *234:B1 *283:A 8.23457e-05
7 *234:B1 *294:A 0.000320783
8 *234:B1 *101:46 0.000598668
9 *234:B1 *109:55 8.15611e-05
10 shift_clk_out *234:B1 7.04912e-05
11 *279:A *234:B1 0.000134922
*RES
1 *202:Y *234:B1 24.7749 
*END

*D_NET *32 0.000293029
*CONN
*I *224:A1 I *D sky130_fd_sc_hd__a31oi_1
*I *203:Y O *D sky130_fd_sc_hd__inv_2
*CAP
1 *224:A1 8.54247e-05
2 *203:Y 8.54247e-05
3 *224:A1 *224:A3 8.38605e-05
4 *224:A1 *69:48 3.83194e-05
*RES
1 *203:Y *224:A1 4.685 
*END

*D_NET *33 0.00617062
*CONN
*I *230:B1 I *D sky130_fd_sc_hd__o21a_1
*I *213:S I *D sky130_fd_sc_hd__mux2_1
*I *208:S I *D sky130_fd_sc_hd__mux2_1
*I *212:S I *D sky130_fd_sc_hd__mux2_1
*I *206:S I *D sky130_fd_sc_hd__mux2_1
*I *204:X O *D sky130_fd_sc_hd__mux4_2
*CAP
1 *230:B1 0.00021592
2 *213:S 0.000112688
3 *208:S 0.000196291
4 *212:S 0.000119136
5 *206:S 2.75796e-05
6 *204:X 0.00025658
7 *33:24 0.000295731
8 *33:20 0.000500413
9 *33:16 0.00048421
10 *33:10 0.000688915
11 *206:S *214:A0 2.75145e-05
12 *206:S *285:A 3.72916e-05
13 *208:S *208:A1 8.70177e-05
14 *208:S *244:CLK 8.49205e-05
15 *208:S *248:D 0.000444063
16 *208:S *64:12 9.69281e-05
17 *208:S *84:30 4.41506e-05
18 *208:S *99:53 0.000235573
19 *212:S *212:A1 4.66108e-05
20 *212:S *214:A0 2.75229e-05
21 *212:S *285:A 9.0716e-05
22 *213:S *213:A0 3.72916e-05
23 *230:B1 *214:S 7.68414e-06
24 *230:B1 *215:B1 4.66108e-05
25 *230:B1 *231:A2 5.4155e-06
26 *230:B1 *231:B1 0.000159741
27 *230:B1 *283:A 8.40213e-05
28 *230:B1 *38:8 2.34602e-05
29 *230:B1 *38:17 6.35552e-05
30 *230:B1 *38:30 1.34503e-05
31 *33:10 *204:A3 9.79625e-05
32 *33:10 *222:A1 5.83121e-06
33 *33:10 *44:26 9.12601e-05
34 *33:10 *69:20 0.000130402
35 *33:10 *84:30 8.65559e-05
36 *33:10 *103:36 8.5188e-06
37 *33:16 *204:A3 0.000116151
38 *33:16 *214:A1 4.82863e-05
39 *33:16 *215:B1 5.02217e-05
40 *33:16 *44:6 1.83847e-05
41 *33:16 *44:10 4.65607e-05
42 *33:16 *44:26 7.21296e-06
43 *33:20 *214:A0 0.00039658
44 *33:20 *247:CLK 0
45 *33:20 *248:D 9.62444e-05
46 *33:20 *99:91 0
47 *33:24 *212:A0 0
48 *33:24 *214:A0 0.000286356
49 *33:24 *61:12 0
50 clk_out *33:24 0.00012309
*RES
1 *204:X *33:10 8.67 
2 *33:10 *33:16 5.9 
3 *33:16 *33:20 6.695 
4 *33:20 *33:24 5.93 
5 *33:24 *206:S 2.395 
6 *33:24 *212:S 4.12 
7 *33:20 *208:S 10.035 
8 *33:16 *213:S 3.445 
9 *33:10 *230:B1 7.875 
*END

*D_NET *34 0.00492142
*CONN
*I *214:S I *D sky130_fd_sc_hd__mux2_1
*I *231:A1 I *D sky130_fd_sc_hd__a21o_1
*I *230:A1 I *D sky130_fd_sc_hd__o21a_1
*I *211:A1 I *D sky130_fd_sc_hd__a21o_1
*I *207:A_N I *D sky130_fd_sc_hd__and2b_1
*I *205:X O *D sky130_fd_sc_hd__mux2_1
*CAP
1 *214:S 0.00043072
2 *231:A1 0
3 *230:A1 0
4 *211:A1 0.000206524
5 *207:A_N 0.00046401
6 *205:X 7.12671e-05
7 *34:51 0.00059411
8 *34:20 0.000884472
9 *34:14 0.00030608
10 *34:10 0.000326799
11 *207:A_N *242:CLK 0.00034224
12 *207:A_N *99:10 0.000157602
13 *211:A1 *216:A0 8.34281e-06
14 *211:A1 *217:A1 2.49909e-05
15 *211:A1 *44:10 0.000150229
16 *214:S *214:A0 0.000113799
17 *214:S *283:A 0.000155113
18 *214:S *38:30 0.000112349
19 *34:10 *108:22 3.86607e-05
20 *34:14 *38:8 3.69003e-05
21 *34:14 *38:17 3.23525e-05
22 *34:20 *209:A0 2.60986e-05
23 *34:20 *209:S 5.83121e-06
24 *34:20 *38:8 8.23457e-05
25 *34:20 *99:10 0.000109009
26 *34:51 *38:17 0.000187281
27 *34:51 *38:30 4.66108e-05
28 *230:B1 *214:S 7.68414e-06
29 *272:A *207:A_N 0
*RES
1 *205:X *34:10 6.47 
2 *34:10 *34:14 1.32 
3 *34:14 *34:20 5.375 
4 *34:20 *207:A_N 10.725 
5 *34:20 *211:A1 7.17 
6 *34:14 *230:A1 1.6 
7 *34:10 *34:51 2.175 
8 *34:51 *231:A1 1.6 
9 *34:51 *214:S 7.855 
*END

*D_NET *35 0.00112553
*CONN
*I *207:B I *D sky130_fd_sc_hd__and2b_1
*I *206:X O *D sky130_fd_sc_hd__mux2_1
*CAP
1 *207:B 0.000442891
2 *206:X 0.000442891
3 *207:B *215:A1 9.09383e-05
4 *207:B *241:CLK 3.67779e-05
5 *207:B *242:CLK 4.41506e-05
6 *207:B *242:D 2.92279e-05
7 *274:A *207:B 3.86529e-05
*RES
1 *206:X *207:B 13.125 
*END

*D_NET *36 0.00205479
*CONN
*I *215:A1 I *D sky130_fd_sc_hd__o22a_1
*I *207:X O *D sky130_fd_sc_hd__and2b_1
*CAP
1 *215:A1 0.000488657
2 *207:X 0.000488657
3 *215:A1 *204:A3 0.000446767
4 *215:A1 *208:A0 0.00023468
5 *215:A1 *210:A 0.000155928
6 *215:A1 *241:CLK 7.17811e-05
7 *215:A1 *242:CLK 2.49909e-05
8 *215:A1 *242:D 4.38634e-05
9 *215:A1 *38:30 8.53113e-06
10 *215:A1 *83:22 0
11 *207:B *215:A1 9.09383e-05
*RES
1 *207:X *215:A1 17.625 
*END

*D_NET *37 0.00110322
*CONN
*I *211:A2 I *D sky130_fd_sc_hd__a21o_1
*I *208:X O *D sky130_fd_sc_hd__mux2_1
*CAP
1 *211:A2 0.00022624
2 *208:X 0.00022624
3 *211:A2 *248:D 0.000200615
4 *211:A2 *83:22 0.000157099
5 *211:A2 *108:22 0.000293032
*RES
1 *208:X *211:A2 12.45 
*END

*D_NET *38 0.00273905
*CONN
*I *211:B1 I *D sky130_fd_sc_hd__a21o_1
*I *210:A I *D sky130_fd_sc_hd__inv_2
*I *231:A2 I *D sky130_fd_sc_hd__a21o_1
*I *230:A2 I *D sky130_fd_sc_hd__o21a_1
*I *209:X O *D sky130_fd_sc_hd__mux2_1
*CAP
1 *211:B1 4.01196e-05
2 *210:A 0.00013698
3 *231:A2 9.79893e-06
4 *230:A2 0
5 *209:X 9.42501e-05
6 *38:30 0.000305817
7 *38:17 0.000201409
8 *38:8 0.000157143
9 *210:A *240:D 4.92096e-05
10 *210:A *286:A 0.000272978
11 *210:A *83:22 0
12 *210:A *99:79 0.000228227
13 *211:B1 *215:A2 4.82863e-05
14 *211:B1 *44:10 0.000123225
15 *231:A2 *231:B1 4.00541e-06
16 *38:17 *231:B1 2.75145e-05
17 *38:30 *204:A3 0.000121102
18 *38:30 *231:B1 6.38806e-05
19 *38:30 *240:D 8.69212e-05
20 *214:S *38:30 0.000112349
21 *215:A1 *210:A 0.000155928
22 *215:A1 *38:30 8.53113e-06
23 *230:B1 *231:A2 5.4155e-06
24 *230:B1 *38:8 2.34602e-05
25 *230:B1 *38:17 6.35552e-05
26 *230:B1 *38:30 1.34503e-05
27 *34:14 *38:8 3.69003e-05
28 *34:14 *38:17 3.23525e-05
29 *34:20 *38:8 8.23457e-05
30 *34:51 *38:17 0.000187281
31 *34:51 *38:30 4.66108e-05
*RES
1 *209:X *38:8 3.355 
2 *38:8 *230:A2 1.6 
3 *38:8 *38:17 2.19 
4 *38:17 *231:A2 1.96 
5 *38:17 *38:30 6.14 
6 *38:30 *210:A 8.01 
7 *38:30 *211:B1 4.74 
*END

*D_NET *39 0.000583554
*CONN
*I *215:B2 I *D sky130_fd_sc_hd__o22a_1
*I *210:Y O *D sky130_fd_sc_hd__inv_2
*CAP
1 *215:B2 0.000167262
2 *210:Y 0.000167262
3 *215:B2 *204:A3 6.47594e-05
4 *215:B2 *215:B1 9.50342e-06
5 *215:B2 *286:A 0.000163199
6 *215:B2 *44:26 1.15688e-05
7 *215:B2 *84:30 0
*RES
1 *210:Y *215:B2 10.065 
*END

*D_NET *40 0.000214225
*CONN
*I *215:A2 I *D sky130_fd_sc_hd__o22a_1
*I *211:X O *D sky130_fd_sc_hd__a21o_1
*CAP
1 *215:A2 6.38097e-05
2 *211:X 6.38097e-05
3 *215:A2 *44:10 3.83194e-05
4 *211:B1 *215:A2 4.82863e-05
*RES
1 *211:X *215:A2 4.34 
*END

*D_NET *41 0.0023915
*CONN
*I *214:A0 I *D sky130_fd_sc_hd__mux2_1
*I *212:X O *D sky130_fd_sc_hd__mux2_1
*CAP
1 *214:A0 0.000432309
2 *212:X 0.000432309
3 *214:A0 *283:A 6.076e-05
4 *214:A0 *61:12 0
5 *214:A0 *64:12 2.04037e-05
6 *214:A0 *84:30 0.000593945
7 *206:S *214:A0 2.75145e-05
8 *212:S *214:A0 2.75229e-05
9 *214:S *214:A0 0.000113799
10 *33:20 *214:A0 0.00039658
11 *33:24 *214:A0 0.000286356
*RES
1 *212:X *214:A0 18.93 
*END

*D_NET *42 0.00042026
*CONN
*I *214:A1 I *D sky130_fd_sc_hd__mux2_1
*I *213:X O *D sky130_fd_sc_hd__mux2_1
*CAP
1 *214:A1 6.9825e-05
2 *213:X 6.9825e-05
3 *214:A1 *44:26 0.000116158
4 *214:A1 *84:30 0.000116165
5 *33:16 *214:A1 4.82863e-05
*RES
1 *213:X *214:A1 9.03 
*END

*D_NET *43 0.000580717
*CONN
*I *215:B1 I *D sky130_fd_sc_hd__o22a_1
*I *214:X O *D sky130_fd_sc_hd__mux2_1
*CAP
1 *215:B1 0.000139872
2 *214:X 0.000139872
3 *215:B1 *204:A3 1.32017e-05
4 *215:B1 *283:A 4.21973e-05
5 *215:B1 *44:26 0.000139238
6 *215:B2 *215:B1 9.50342e-06
7 *230:B1 *215:B1 4.66108e-05
8 *33:16 *215:B1 5.02217e-05
*RES
1 *214:X *215:B1 9.975 
*END

*D_NET *44 0.00657687
*CONN
*I *222:A0 I *D sky130_fd_sc_hd__mux4_1
*I *226:A0 I *D sky130_fd_sc_hd__mux4_1
*I *220:A0 I *D sky130_fd_sc_hd__mux2_1
*I *218:A0 I *D sky130_fd_sc_hd__mux2_1
*I *232:B I *D sky130_fd_sc_hd__nand2_1
*I *217:A0 I *D sky130_fd_sc_hd__mux2_1
*I *216:A0 I *D sky130_fd_sc_hd__mux2_1
*I *215:X O *D sky130_fd_sc_hd__o22a_1
*CAP
1 *222:A0 3.61456e-05
2 *226:A0 3.05959e-05
3 *220:A0 0.000170848
4 *218:A0 6.77317e-05
5 *232:B 3.67181e-05
6 *217:A0 0
7 *216:A0 0.000262239
8 *215:X 2.28707e-05
9 *44:47 0.000396709
10 *44:45 0.000309182
11 *44:30 0.000369546
12 *44:26 0.000519217
13 *44:10 0.000701686
14 *44:6 0.000733019
15 *216:A0 *217:A1 0.000298431
16 *218:A0 *218:S 1.19928e-05
17 *218:A0 *226:A2 4.66108e-05
18 *220:A0 *221:A1 0.000358944
19 *220:A0 *221:S 4.80285e-05
20 *220:A0 *83:41 2.92496e-05
21 *226:A0 *226:A2 1.37328e-05
22 *232:B *226:A3 2.8185e-05
23 *232:B *232:A 4.82919e-05
24 *232:B *79:14 5.05521e-05
25 *44:26 *84:30 0.000230379
26 *44:30 *232:A 0.000112135
27 *44:30 *234:A2_N 0
28 *44:30 *70:34 0
29 *44:30 *84:30 7.9642e-06
30 *44:30 *84:41 0.000367563
31 *44:45 *226:A2 2.76356e-05
32 *44:45 *234:A2_N 0
33 *44:45 *84:41 0.000106648
34 *44:47 *226:A2 0.000168148
35 *211:A1 *216:A0 8.34281e-06
36 *211:A1 *44:10 0.000150229
37 *211:B1 *44:10 0.000123225
38 *214:A1 *44:26 0.000116158
39 *215:A2 *44:10 3.83194e-05
40 *215:B1 *44:26 0.000139238
41 *215:B2 *44:26 1.15688e-05
42 *235:D *232:B 7.00889e-06
43 *235:D *44:45 2.46089e-05
44 *280:A *220:A0 0.000183751
45 *33:10 *44:26 9.12601e-05
46 *33:16 *44:6 1.83847e-05
47 *33:16 *44:10 4.65607e-05
48 *33:16 *44:26 7.21296e-06
*RES
1 *215:X *44:6 2.05 
2 *44:6 *44:10 6.675 
3 *44:10 *216:A0 4.81 
4 *44:10 *217:A0 1.6 
5 *44:6 *44:26 8.48 
6 *44:26 *44:30 4.89 
7 *44:30 *232:B 4.74 
8 *44:30 *44:45 4.175 
9 *44:45 *44:47 2.175 
10 *44:47 *218:A0 2.395 
11 *44:47 *220:A0 10.58 
12 *44:45 *226:A0 2.215 
13 *44:26 *222:A0 4.05 
*END

*D_NET *45 0.000730845
*CONN
*I *225:A1 I *D sky130_fd_sc_hd__mux2_1
*I *222:X O *D sky130_fd_sc_hd__mux4_1
*CAP
1 *225:A1 0.00023729
2 *222:X 0.00023729
3 *225:A1 *225:A0 8.23457e-05
4 *225:A1 *257:D 0.000107608
5 *225:A1 *71:10 5.06699e-05
6 *225:A1 *101:54 1.56428e-05
*RES
1 *222:X *225:A1 10.335 
*END

*D_NET *46 0.000170342
*CONN
*I *224:B1 I *D sky130_fd_sc_hd__a31oi_1
*I *223:Y O *D sky130_fd_sc_hd__a21oi_1
*CAP
1 *224:B1 5.27846e-05
2 *223:Y 5.27846e-05
3 *224:B1 *223:B1 4.75959e-05
4 *224:B1 *225:A0 1.71773e-05
*RES
1 *223:Y *224:B1 4.265 
*END

*D_NET *47 0.00231809
*CONN
*I *225:A0 I *D sky130_fd_sc_hd__mux2_1
*I *224:Y O *D sky130_fd_sc_hd__a31oi_1
*CAP
1 *225:A0 0.00082722
2 *224:Y 0.00082722
3 *225:A0 *201:A 9.43331e-06
4 *225:A0 *223:A2 3.07097e-05
5 *225:A0 *225:S 4.66108e-05
6 *225:A0 *255:CLK 7.66388e-05
7 *225:A0 *257:CLK 2.76356e-05
8 *225:A0 *257:D 0.000285146
9 *225:A0 *71:10 2.95721e-05
10 *225:A0 *101:46 4.64502e-05
11 *225:A0 *104:50 2.46151e-06
12 *224:B1 *225:A0 1.71773e-05
13 *225:A1 *225:A0 8.23457e-05
14 *30:14 *225:A0 9.46859e-06
*RES
1 *224:Y *225:A0 17.88 
*END

*D_NET *48 0.000312728
*CONN
*I *229:A1 I *D sky130_fd_sc_hd__mux2_1
*I *226:X O *D sky130_fd_sc_hd__mux4_1
*CAP
1 *229:A1 0.000136343
2 *226:X 0.000136343
3 *229:A1 *226:S1 1.83847e-05
4 *229:A1 *229:S 1.56428e-05
5 *229:A1 *72:14 6.0147e-06
*RES
1 *226:X *229:A1 4.685 
*END

*D_NET *49 0.000497892
*CONN
*I *228:B1 I *D sky130_fd_sc_hd__a31oi_1
*I *227:Y O *D sky130_fd_sc_hd__a21oi_1
*CAP
1 *228:B1 5.01072e-05
2 *227:Y 5.01072e-05
3 *228:B1 *229:A0 0.000166346
4 carry_out *228:B1 0.000207797
5 *30:14 *228:B1 2.35349e-05
*RES
1 *227:Y *228:B1 9.6 
*END

*D_NET *50 0.0010682
*CONN
*I *229:A0 I *D sky130_fd_sc_hd__mux2_1
*I *228:Y O *D sky130_fd_sc_hd__a31oi_1
*CAP
1 *229:A0 0.000189252
2 *228:Y 0.000189252
3 *229:A0 *229:S 8.49205e-05
4 *229:A0 *72:14 4.01778e-05
5 carry_out *229:A0 8.42239e-05
6 *228:B1 *229:A0 0.000166346
7 *30:14 *229:A0 0.000314028
*RES
1 *228:Y *229:A0 12.705 
*END

*D_NET *51 0.000368662
*CONN
*I *231:B1 I *D sky130_fd_sc_hd__a21o_1
*I *230:X O *D sky130_fd_sc_hd__o21a_1
*CAP
1 *231:B1 5.67601e-05
2 *230:X 5.67601e-05
3 *231:B1 *283:A 0
4 *230:B1 *231:B1 0.000159741
5 *231:A2 *231:B1 4.00541e-06
6 *38:17 *231:B1 2.75145e-05
7 *38:30 *231:B1 6.38806e-05
*RES
1 *230:X *231:B1 5.045 
*END

*D_NET *52 0.000334988
*CONN
*I *234:A1_N I *D sky130_fd_sc_hd__o2bb2a_1
*I *232:Y O *D sky130_fd_sc_hd__nand2_1
*CAP
1 *234:A1_N 6.6207e-05
2 *232:Y 6.6207e-05
3 *234:A1_N *232:A 3.70488e-05
4 *234:A1_N *234:A2_N 8.15044e-05
5 *235:D *234:A1_N 8.40213e-05
*RES
1 *232:Y *234:A1_N 4.92875 
*END

*D_NET *53 0.00383865
*CONN
*I *234:A2_N I *D sky130_fd_sc_hd__o2bb2a_1
*I *233:Y O *D sky130_fd_sc_hd__a21oi_1
*CAP
1 *234:A2_N 0.00119299
2 *233:Y 0.00119299
3 *234:A2_N *226:A3 0.000248783
4 *234:A2_N *232:A 3.26777e-05
5 *234:A2_N *234:B2 0.000171588
6 *234:A2_N *235:CLK 9.68709e-05
7 *234:A2_N *260:D 4.9014e-05
8 *234:A2_N *295:A 7.06865e-05
9 *234:A2_N *94:8 2.54436e-05
10 *234:A2_N *105:25 0.000208559
11 *234:A1_N *234:A2_N 8.15044e-05
12 *235:D *234:A2_N 0.000467534
13 *44:30 *234:A2_N 0
14 *44:45 *234:A2_N 0
*RES
1 *233:Y *234:A2_N 28.005 
*END

*D_NET *54 0.00198702
*CONN
*I *266:A I *D sky130_fd_sc_hd__clkbuf_16
*I *265:A I *D sky130_fd_sc_hd__clkbuf_16
*I *264:X O *D sky130_fd_sc_hd__clkbuf_16
*CAP
1 *266:A 0.000151588
2 *265:A 0.000448511
3 *264:X 0.000144116
4 *54:8 0.000744214
5 *266:A *233:A2 0.000173249
6 *234:B1 *265:A 0.000325343
*RES
1 *264:X *54:8 5.235 
2 *54:8 *265:A 9.57 
3 *54:8 *266:A 6.465 
*END

*D_NET *55 0.000932607
*CONN
*I *235:CLK I *D sky130_fd_sc_hd__dfxtp_1
*I *265:X O *D sky130_fd_sc_hd__clkbuf_16
*CAP
1 *235:CLK 0.000209209
2 *265:X 0.000209209
3 *235:CLK *227:A1 3.64722e-05
4 *235:CLK *295:A 0.000112893
5 *235:CLK *94:8 0.000248254
6 shift_clk_out *235:CLK 1.96989e-05
7 *234:A2_N *235:CLK 9.68709e-05
*RES
1 *265:X *235:CLK 11.76 
*END

*D_NET *56 0.00171675
*CONN
*I *267:A I *D sky130_fd_sc_hd__clkbuf_4
*I *261:A I *D sky130_fd_sc_hd__buf_2
*I *266:X O *D sky130_fd_sc_hd__clkbuf_16
*CAP
1 *267:A 0.000555822
2 *261:A 0
3 *266:X 0.000139233
4 *56:12 0.000695055
5 carry_out *56:12 0
6 *264:A *267:A 4.66108e-05
7 *279:A *267:A 0.000280032
*RES
1 *266:X *56:12 7.685 
2 *56:12 *261:A 1.6 
3 *56:12 *267:A 10 
*END

*D_NET *57 0.00251815
*CONN
*I *237:D I *D sky130_fd_sc_hd__dfxtp_1
*I *209:S I *D sky130_fd_sc_hd__mux2_1
*I *236:Q O *D sky130_fd_sc_hd__dfxtp_1
*CAP
1 *237:D 3.11737e-05
2 *209:S 0.000276193
3 *236:Q 0.00079404
4 *57:10 0.00110141
5 *209:S *209:A1 2.41641e-05
6 *209:S *99:10 1.74678e-05
7 *237:D *205:A0 5.01066e-05
8 *57:10 *204:A2 6.59891e-05
9 *57:10 *270:A 0.000138188
10 *57:10 *292:A 1.35854e-05
11 *34:20 *209:S 5.83121e-06
*RES
1 *236:Q *57:10 13.095 
2 *57:10 *209:S 7.08 
3 *57:10 *237:D 4.08375 
*END

*D_NET *58 0.00301398
*CONN
*I *205:S I *D sky130_fd_sc_hd__mux2_1
*I *238:D I *D sky130_fd_sc_hd__dfxtp_1
*I *237:Q O *D sky130_fd_sc_hd__dfxtp_1
*CAP
1 *205:S 0.00063012
2 *238:D 0.000304257
3 *237:Q 0.000114575
4 *58:6 0.00104895
5 *205:S *205:A0 0.000190289
6 *205:S *237:CLK 4.64034e-05
7 *238:D *221:A1 7.70553e-06
8 *238:D *268:A 0.000452804
9 *58:6 *205:A0 3.64998e-06
10 *277:A *238:D 0.000130406
11 *278:A *238:D 8.48143e-05
*RES
1 *237:Q *58:6 2.74 
2 *58:6 *238:D 12.0087 
3 *58:6 *205:S 8.875 
*END

*D_NET *59 0.00168491
*CONN
*I *239:D I *D sky130_fd_sc_hd__dfxtp_1
*I *204:S1 I *D sky130_fd_sc_hd__mux4_2
*I *238:Q O *D sky130_fd_sc_hd__dfxtp_1
*CAP
1 *239:D 8.27746e-05
2 *204:S1 0.0001324
3 *238:Q 0.000140234
4 *59:8 0.000355409
5 *204:S1 *204:A3 4.82919e-05
6 *204:S1 *237:CLK 0.000105651
7 *204:S1 *103:12 4.66108e-05
8 *239:D *100:35 0.000303273
9 *239:D *104:6 8.73563e-05
10 *239:D *104:29 0.000225285
11 *59:8 *237:CLK 2.73058e-05
12 *59:8 *252:CLK 0.000130313
*RES
1 *238:Q *59:8 5.49 
2 *59:8 *204:S1 5.43 
3 *59:8 *239:D 6.49875 
*END

*D_NET *60 0.0022196
*CONN
*I *204:S0 I *D sky130_fd_sc_hd__mux4_2
*I *240:D I *D sky130_fd_sc_hd__dfxtp_1
*I *239:Q O *D sky130_fd_sc_hd__dfxtp_1
*CAP
1 *204:S0 0
2 *240:D 0.000319245
3 *239:Q 0.000145277
4 *60:10 0.000464523
5 *240:D *204:A3 0.00014233
6 *240:D *205:A1 0.000151283
7 *240:D *286:A 0.000124151
8 *240:D *83:22 0.000487575
9 *240:D *99:79 3.73266e-05
10 *60:10 *204:A3 2.8867e-05
11 *60:10 *205:A1 6.36888e-05
12 *60:10 *69:20 0
13 *60:10 *83:22 3.58684e-05
14 *60:10 *104:29 8.33308e-05
15 *210:A *240:D 4.92096e-05
16 *38:30 *240:D 8.69212e-05
*RES
1 *239:Q *60:10 6.03 
2 *60:10 *240:D 12.5288 
3 *60:10 *204:S0 2 
*END

*D_NET *61 0.0016674
*CONN
*I *206:A0 I *D sky130_fd_sc_hd__mux2_1
*I *241:D I *D sky130_fd_sc_hd__dfxtp_1
*I *240:Q O *D sky130_fd_sc_hd__dfxtp_1
*CAP
1 *206:A0 0
2 *241:D 7.8264e-05
3 *240:Q 0.000349501
4 *61:12 0.000427765
5 *241:D *206:A1 0.000134655
6 *241:D *285:A 0.000343488
7 *61:12 *204:A3 8.20531e-05
8 *61:12 *241:CLK 0
9 *61:12 *64:12 9.14354e-05
10 *61:12 *84:30 5.64057e-05
11 *61:12 *99:79 2.75229e-05
12 clk_out *61:12 0
13 *214:A0 *61:12 0
14 *274:A *61:12 7.63125e-05
15 *33:24 *61:12 0
*RES
1 *240:Q *61:12 11.765 
2 *61:12 *241:D 5.05375 
3 *61:12 *206:A0 1.6 
*END

*D_NET *62 0.00206719
*CONN
*I *206:A1 I *D sky130_fd_sc_hd__mux2_1
*I *242:D I *D sky130_fd_sc_hd__dfxtp_1
*I *241:Q O *D sky130_fd_sc_hd__dfxtp_1
*CAP
1 *206:A1 0.000410096
2 *242:D 0.000155544
3 *241:Q 0.000216963
4 *62:6 0.000782603
5 *206:A1 *285:A 1.85564e-05
6 *206:A1 *83:22 2.66586e-05
7 *242:D *108:22 7.85299e-05
8 *62:6 *108:22 8.23457e-05
9 *207:B *242:D 2.92279e-05
10 *215:A1 *242:D 4.38634e-05
11 *241:D *206:A1 0.000134655
12 *273:A *206:A1 2.54431e-05
13 *273:A *62:6 6.27059e-05
*RES
1 *241:Q *62:6 4.12 
2 *62:6 *242:D 7.955 
3 *62:6 *206:A1 7.705 
*END

*D_NET *63 0.00181648
*CONN
*I *243:D I *D sky130_fd_sc_hd__dfxtp_1
*I *208:A0 I *D sky130_fd_sc_hd__mux2_1
*I *242:Q O *D sky130_fd_sc_hd__dfxtp_1
*CAP
1 *243:D 0.000251721
2 *208:A0 0.000321401
3 *242:Q 0
4 *63:4 0.000573122
5 *208:A0 *83:22 7.23602e-05
6 *208:A0 *108:22 3.86607e-05
7 clk_out *243:D 0.000130411
8 *215:A1 *208:A0 0.00023468
9 *274:A *208:A0 8.22234e-06
10 *274:A *243:D 0.000185899
*RES
1 *242:Q *63:4 1.6 
2 *63:4 *208:A0 10.025 
3 *63:4 *243:D 6.83875 
*END

*D_NET *64 0.00115528
*CONN
*I *244:D I *D sky130_fd_sc_hd__dfxtp_1
*I *208:A1 I *D sky130_fd_sc_hd__mux2_1
*I *243:Q O *D sky130_fd_sc_hd__dfxtp_1
*CAP
1 *244:D 0
2 *208:A1 0.000193509
3 *243:Q 9.12001e-05
4 *64:12 0.000284709
5 *208:A1 *244:CLK 7.40446e-05
6 *208:A1 *99:53 0.000198939
7 *64:12 *84:30 1.70935e-05
8 *208:S *208:A1 8.70177e-05
9 *208:S *64:12 9.69281e-05
10 *214:A0 *64:12 2.04037e-05
11 *61:12 *64:12 9.14354e-05
*RES
1 *243:Q *64:12 7.63625 
2 *64:12 *208:A1 5.03875 
3 *64:12 *244:D 1.6 
*END

*D_NET *65 0.00148054
*CONN
*I *245:D I *D sky130_fd_sc_hd__dfxtp_1
*I *212:A0 I *D sky130_fd_sc_hd__mux2_1
*I *244:Q O *D sky130_fd_sc_hd__dfxtp_1
*CAP
1 *245:D 5.69587e-05
2 *212:A0 0.000334281
3 *244:Q 0.000105751
4 *65:14 0.00049699
5 *245:D *243:CLK 8.36331e-05
6 *245:D *84:30 0.000166634
7 *245:D *99:91 4.41506e-05
8 *65:14 *243:CLK 3.89248e-06
9 *65:14 *84:30 3.41806e-05
10 *65:14 *99:91 5.63957e-05
11 clk_out *212:A0 9.76717e-05
12 *33:24 *212:A0 0
*RES
1 *244:Q *65:14 3.925 
2 *65:14 *212:A0 9.53 
3 *65:14 *245:D 3.31375 
*END

*D_NET *66 0.00278128
*CONN
*I *246:D I *D sky130_fd_sc_hd__dfxtp_1
*I *212:A1 I *D sky130_fd_sc_hd__mux2_1
*I *245:Q O *D sky130_fd_sc_hd__dfxtp_1
*CAP
1 *246:D 0.000239281
2 *212:A1 0.00046566
3 *245:Q 0.000407275
4 *66:8 0.00111222
5 *212:A1 *243:CLK 0.000134127
6 *212:A1 *285:A 8.5002e-05
7 *246:D *286:A 0.000193046
8 *246:D *99:85 4.82319e-06
9 *66:8 *243:CLK 1.83847e-05
10 *66:8 *84:30 2.08471e-05
11 reset_out *212:A1 5.4003e-05
12 *212:S *212:A1 4.66108e-05
*RES
1 *245:Q *66:8 7.845 
2 *66:8 *212:A1 10.035 
3 *66:8 *246:D 7.09875 
*END

*D_NET *67 0.0013461
*CONN
*I *247:D I *D sky130_fd_sc_hd__dfxtp_1
*I *213:A0 I *D sky130_fd_sc_hd__mux2_1
*I *246:Q O *D sky130_fd_sc_hd__dfxtp_1
*CAP
1 *247:D 0
2 *213:A0 0.000119348
3 *246:Q 0.000215292
4 *67:12 0.000334639
5 *213:A0 *247:CLK 0.000118081
6 *213:A0 *68:6 0.000299833
7 *67:12 *289:A 0
8 *67:12 *68:6 0.00022162
9 *213:S *213:A0 3.72916e-05
*RES
1 *246:Q *67:12 8.93375 
2 *67:12 *213:A0 4.77625 
3 *67:12 *247:D 1.6 
*END

*D_NET *68 0.00422679
*CONN
*I *213:A1 I *D sky130_fd_sc_hd__mux2_1
*I *248:D I *D sky130_fd_sc_hd__dfxtp_1
*I *247:Q O *D sky130_fd_sc_hd__dfxtp_1
*CAP
1 *213:A1 0
2 *248:D 0.000771719
3 *247:Q 0.000581608
4 *68:6 0.00135333
5 *248:D *247:CLK 9.68787e-05
6 *248:D *248:CLK 4.66108e-05
7 *248:D *84:30 1.45272e-05
8 *248:D *99:53 6.29663e-05
9 *248:D *99:91 3.67779e-05
10 *208:S *248:D 0.000444063
11 *211:A2 *248:D 0.000200615
12 *213:A0 *68:6 0.000299833
13 *33:20 *248:D 9.62444e-05
14 *67:12 *68:6 0.00022162
*RES
1 *247:Q *68:6 8.605 
2 *68:6 *248:D 18.905 
3 *68:6 *213:A1 1.6 
*END

*D_NET *69 0.00568746
*CONN
*I *223:B1 I *D sky130_fd_sc_hd__a21oi_1
*I *224:A2 I *D sky130_fd_sc_hd__a31oi_1
*I *222:S1 I *D sky130_fd_sc_hd__mux4_1
*I *255:D I *D sky130_fd_sc_hd__dfxtp_1
*I *254:Q O *D sky130_fd_sc_hd__dfxtp_1
*CAP
1 *223:B1 3.91948e-05
2 *224:A2 0
3 *222:S1 0.000412347
4 *255:D 0
5 *254:Q 0.000566778
6 *69:48 7.52043e-05
7 *69:20 0.000901086
8 *69:10 0.00109153
9 *222:S1 *283:A 4.31088e-05
10 *223:B1 *224:A3 8.43191e-05
11 *223:B1 *104:29 3.62614e-05
12 *223:B1 *104:50 0.000121102
13 *69:10 *219:A1 0.00032566
14 *69:10 *222:A2 1.00941e-05
15 *69:10 *226:A3 0.000136905
16 *69:10 *83:41 0
17 *69:10 *84:41 0.000523347
18 *69:10 *103:36 2.05722e-05
19 *69:10 *105:10 1.03423e-05
20 *69:10 *105:25 3.24055e-05
21 *69:10 *109:10 0.000162311
22 *69:10 *109:12 8.5225e-05
23 *69:10 *109:14 0.000184965
24 *69:20 *204:A3 5.51351e-05
25 *69:20 *70:8 5.50948e-05
26 *69:20 *84:30 0.000101518
27 *69:20 *84:41 0.00014464
28 *69:20 *103:36 8.53307e-05
29 *69:48 *224:A3 4.75991e-05
30 *69:48 *104:29 0.000119069
31 *224:A1 *69:48 3.83194e-05
32 *224:B1 *223:B1 4.75959e-05
33 *33:10 *69:20 0.000130402
34 *60:10 *69:20 0
*RES
1 *254:Q *69:10 16.515 
2 *69:10 *69:20 11.1088 
3 *69:20 *255:D 1.6 
4 *69:20 *222:S1 11.165 
5 *69:10 *69:48 3.14 
6 *69:48 *224:A2 1.6 
7 *69:48 *223:B1 3.085 
*END

*D_NET *70 0.00266215
*CONN
*I *223:A2 I *D sky130_fd_sc_hd__a21oi_1
*I *224:A3 I *D sky130_fd_sc_hd__a31oi_1
*I *222:S0 I *D sky130_fd_sc_hd__mux4_1
*I *256:D I *D sky130_fd_sc_hd__dfxtp_1
*I *255:Q O *D sky130_fd_sc_hd__dfxtp_1
*CAP
1 *223:A2 6.95077e-05
2 *224:A3 0.000132101
3 *222:S0 0
4 *256:D 0.000214527
5 *255:Q 0.000204496
6 *70:34 0.00033768
7 *70:25 0.000203597
8 *70:8 0.000486549
9 *223:A2 *201:A 1.13345e-05
10 *223:A2 *104:50 8.12198e-05
11 *256:D *256:CLK 0.000111993
12 *256:D *283:A 0.000161799
13 *256:D *84:30 8.30989e-05
14 *70:8 *84:30 0.000119595
15 *70:25 *283:A 4.24864e-05
16 *70:34 *222:A3 1.3735e-05
17 *70:34 *223:A1 2.10582e-05
18 *70:34 *232:A 1.22127e-05
19 *70:34 *283:A 5.35797e-05
20 *223:B1 *224:A3 8.43191e-05
21 *224:A1 *224:A3 8.38605e-05
22 *225:A0 *223:A2 3.07097e-05
23 *44:30 *70:34 0
24 *69:20 *70:8 5.50948e-05
25 *69:48 *224:A3 4.75991e-05
*RES
1 *255:Q *70:8 6.12 
2 *70:8 *256:D 7.92375 
3 *70:8 *70:25 1.125 
4 *70:25 *222:S0 3.6 
5 *70:25 *70:34 2.4 
6 *70:34 *224:A3 5.535 
7 *70:34 *223:A2 4.845 
*END

*D_NET *71 0.00173105
*CONN
*I *257:D I *D sky130_fd_sc_hd__dfxtp_1
*I *225:S I *D sky130_fd_sc_hd__mux2_1
*I *256:Q O *D sky130_fd_sc_hd__dfxtp_1
*CAP
1 *257:D 0.000149796
2 *225:S 1.36534e-05
3 *256:Q 0.000286468
4 *71:10 0.000449917
5 *225:S *255:CLK 4.66108e-05
6 *257:D *257:CLK 1.43717e-05
7 *257:D *101:54 0.000109073
8 *71:10 *256:CLK 0.000127183
9 *225:A0 *225:S 4.66108e-05
10 *225:A0 *257:D 0.000285146
11 *225:A0 *71:10 2.95721e-05
12 *225:A1 *257:D 0.000107608
13 *225:A1 *71:10 5.06699e-05
14 *30:14 *257:D 1.43717e-05
*RES
1 *256:Q *71:10 7.41 
2 *71:10 *225:S 4.05 
3 *71:10 *257:D 7.41375 
*END

*D_NET *72 0.00570616
*CONN
*I *228:A2 I *D sky130_fd_sc_hd__a31oi_1
*I *227:B1 I *D sky130_fd_sc_hd__a21oi_1
*I *226:S0 I *D sky130_fd_sc_hd__mux4_1
*I *258:D I *D sky130_fd_sc_hd__dfxtp_1
*I *257:Q O *D sky130_fd_sc_hd__dfxtp_1
*CAP
1 *228:A2 0.000243955
2 *227:B1 9.33944e-05
3 *226:S0 2.8828e-05
4 *258:D 0.000547673
5 *257:Q 0.000207735
6 *72:40 0.000372647
7 *72:14 0.00137619
8 *72:10 0.00104272
9 *226:S0 *226:A2 4.82919e-05
10 *228:A2 *227:A2 1.08758e-05
11 *228:A2 *262:A 0.000131408
12 *228:A2 *284:A 0.00013994
13 *258:D *219:A1 2.03578e-05
14 *258:D *226:A2 2.16833e-05
15 *258:D *227:A1 7.10578e-05
16 *258:D *73:6 2.67184e-05
17 *258:D *84:41 3.39064e-05
18 *72:10 *262:A 7.5416e-05
19 *72:10 *284:A 0.000366014
20 *72:10 *289:A 0
21 *72:14 *226:A2 6.79094e-05
22 *72:14 *226:S1 0.000165502
23 *72:14 *229:S 8.63479e-05
24 *72:14 *262:A 1.56428e-05
25 *72:40 *262:A 0.000131401
26 *72:40 *284:A 0.000139933
27 carry_out *72:10 5.92191e-05
28 *229:A0 *72:14 4.01778e-05
29 *229:A1 *72:14 6.0147e-06
30 *235:D *258:D 0.00013521
*RES
1 *257:Q *72:10 8.58 
2 *72:10 *72:14 11.075 
3 *72:14 *258:D 14.0337 
4 *72:14 *226:S0 2.41 
5 *72:10 *72:40 1.635 
6 *72:40 *227:B1 4.74 
7 *72:40 *228:A2 7.77 
*END

*D_NET *73 0.00446597
*CONN
*I *226:S1 I *D sky130_fd_sc_hd__mux4_1
*I *227:A2 I *D sky130_fd_sc_hd__a21oi_1
*I *228:A3 I *D sky130_fd_sc_hd__a31oi_1
*I *259:D I *D sky130_fd_sc_hd__dfxtp_1
*I *258:Q O *D sky130_fd_sc_hd__dfxtp_1
*CAP
1 *226:S1 0.000454447
2 *227:A2 9.52613e-05
3 *228:A3 0
4 *259:D 8.58312e-06
5 *258:Q 0.000354929
6 *73:23 0.000414327
7 *73:12 0.000511751
8 *73:6 0.000993479
9 *226:S1 *227:A1 0.00026102
10 *227:A2 *229:S 0.000116171
11 *227:A2 *260:D 5.13684e-05
12 *259:D *101:38 8.54402e-07
13 *73:6 *227:A1 0.000416828
14 *73:23 *260:CLK 8.66915e-05
15 *73:23 *74:8 2.49909e-05
16 *73:23 *101:38 6.63468e-05
17 shift_clk_out *73:12 0.000113972
18 *228:A2 *227:A2 1.08758e-05
19 *229:A1 *226:S1 1.83847e-05
20 *234:B1 *226:S1 0.000114492
21 *258:D *73:6 2.67184e-05
22 *30:14 *227:A2 0.000158976
23 *72:14 *226:S1 0.000165502
*RES
1 *258:Q *73:6 6.19 
2 *73:6 *73:12 6.4 
3 *73:12 *259:D 1.73875 
4 *73:12 *73:23 4.95 
5 *73:23 *228:A3 1.6 
6 *73:23 *227:A2 7.94 
7 *73:6 *226:S1 12.365 
*END

*D_NET *74 0.00185728
*CONN
*I *260:D I *D sky130_fd_sc_hd__dfxtp_1
*I *229:S I *D sky130_fd_sc_hd__mux2_1
*I *259:Q O *D sky130_fd_sc_hd__dfxtp_1
*CAP
1 *260:D 0.00016657
2 *229:S 0.000196615
3 *259:Q 3.98087e-05
4 *74:8 0.000402993
5 *260:D *233:A2 8.53113e-06
6 *260:D *260:CLK 0.000116158
7 *260:D *105:25 0.000148622
8 shift_data_out *229:S 0.000148638
9 *227:A2 *229:S 0.000116171
10 *227:A2 *260:D 5.13684e-05
11 *229:A0 *229:S 8.49205e-05
12 *229:A1 *229:S 1.56428e-05
13 *233:A1 *260:D 9.32135e-05
14 *234:A2_N *260:D 4.9014e-05
15 *30:14 *229:S 9.50114e-05
16 *30:14 *260:D 1.26626e-05
17 *72:14 *229:S 8.63479e-05
18 *73:23 *74:8 2.49909e-05
*RES
1 *259:Q *74:8 4.05 
2 *74:8 *229:S 8.505 
3 *74:8 *260:D 7.92 
*END

*D_NET *75 0.0015104
*CONN
*I *216:S I *D sky130_fd_sc_hd__mux2_1
*I *249:D I *D sky130_fd_sc_hd__dfxtp_1
*I *248:Q O *D sky130_fd_sc_hd__dfxtp_1
*CAP
1 *216:S 4.52626e-05
2 *249:D 0.000297387
3 *248:Q 8.11452e-05
4 *75:10 0.000423795
5 *216:S *250:D 3.09233e-05
6 *216:S *285:A 2.13396e-05
7 *216:S *76:8 0.00011852
8 *216:S *102:8 0.000141606
9 *216:S *102:19 4.38051e-05
10 *249:D *99:29 8.58415e-05
11 *75:10 *285:A 8.08439e-05
12 *75:10 *102:8 0.000139933
*RES
1 *248:Q *75:10 5.685 
2 *75:10 *249:D 7.53375 
3 *75:10 *216:S 5.745 
*END

*D_NET *76 0.00408537
*CONN
*I *250:D I *D sky130_fd_sc_hd__dfxtp_1
*I *217:S I *D sky130_fd_sc_hd__mux2_1
*I *249:Q O *D sky130_fd_sc_hd__dfxtp_1
*CAP
1 *250:D 0.000633698
2 *217:S 0.000150712
3 *249:Q 2.88078e-05
4 *76:8 0.000813218
5 *217:S *216:A1 0.00022953
6 *217:S *217:A1 0.000301899
7 *217:S *285:A 5.88334e-05
8 *250:D *205:A0 2.79472e-05
9 *250:D *221:A1 0.000490517
10 *250:D *250:CLK 4.82863e-05
11 *250:D *268:A 0.000253799
12 *250:D *285:A 4.44927e-05
13 *250:D *100:14 6.45236e-05
14 *250:D *100:16 0.00024612
15 *250:D *100:18 0.000175894
16 *250:D *100:26 0.000166346
17 *250:D *101:27 8.44909e-06
18 *250:D *102:19 7.26629e-05
19 *76:8 *285:A 0.000120186
20 *216:S *250:D 3.09233e-05
21 *216:S *76:8 0.00011852
*RES
1 *249:Q *76:8 4.98 
2 *76:8 *217:S 7.515 
3 *76:8 *250:D 20.8988 
*END

*D_NET *77 0.00367827
*CONN
*I *251:D I *D sky130_fd_sc_hd__dfxtp_1
*I *218:S I *D sky130_fd_sc_hd__mux2_1
*I *250:Q O *D sky130_fd_sc_hd__dfxtp_1
*CAP
1 *251:D 0.00070781
2 *218:S 0.000508649
3 *250:Q 3.69588e-05
4 *77:8 0.00125342
5 *218:S *226:A2 2.49909e-05
6 *218:S *252:D 0.000402749
7 *218:S *292:A 5.83121e-06
8 *251:D *202:A 0
9 *251:D *252:D 0.000360604
10 *251:D *78:10 6.05081e-05
11 *77:8 *101:27 4.66108e-05
12 *218:A0 *218:S 1.19928e-05
13 *279:A *251:D 0.000258148
*RES
1 *250:Q *77:8 4.05 
2 *77:8 *218:S 10.47 
3 *77:8 *251:D 13.5938 
*END

*D_NET *78 0.00390366
*CONN
*I *219:S I *D sky130_fd_sc_hd__mux2_1
*I *252:D I *D sky130_fd_sc_hd__dfxtp_1
*I *251:Q O *D sky130_fd_sc_hd__dfxtp_1
*CAP
1 *219:S 0.000468996
2 *252:D 0.000340477
3 *251:Q 7.95843e-05
4 *78:10 0.000889058
5 *219:S *219:A1 2.77283e-05
6 *219:S *233:A2 5.062e-06
7 *219:S *293:A 0.000182014
8 *219:S *109:55 1.23238e-05
9 *252:D *221:A1 0.00010604
10 *252:D *253:D 0.000304934
11 *252:D *79:14 0.000585404
12 *218:S *252:D 0.000402749
13 *251:D *252:D 0.000360604
14 *251:D *78:10 6.05081e-05
15 *279:A *78:10 2.49909e-05
16 *280:A *252:D 3.47668e-05
17 *280:A *78:10 1.84195e-05
*RES
1 *251:Q *78:10 4.92 
2 *78:10 *252:D 15.1838 
3 *78:10 *219:S 9.495 
*END

*D_NET *79 0.00328586
*CONN
*I *253:D I *D sky130_fd_sc_hd__dfxtp_1
*I *220:S I *D sky130_fd_sc_hd__mux2_1
*I *252:Q O *D sky130_fd_sc_hd__dfxtp_1
*CAP
1 *253:D 0.000122097
2 *220:S 0
3 *252:Q 0.000544513
4 *79:14 0.00066661
5 *253:D *253:CLK 0.000126084
6 *253:D *293:A 0.000126084
7 *79:14 *220:A1 0.000468933
8 *79:14 *221:A1 7.03366e-05
9 *79:14 *226:A3 9.46859e-06
10 *232:B *79:14 5.05521e-05
11 *252:D *253:D 0.000304934
12 *252:D *79:14 0.000585404
13 *280:A *253:D 0.000173183
14 *280:A *79:14 3.76596e-05
*RES
1 *252:Q *79:14 15.48 
2 *79:14 *220:S 3.6 
3 *79:14 *253:D 8.44875 
*END

*D_NET *80 0.00196797
*CONN
*I *254:D I *D sky130_fd_sc_hd__dfxtp_1
*I *221:S I *D sky130_fd_sc_hd__mux2_1
*I *253:Q O *D sky130_fd_sc_hd__dfxtp_1
*CAP
1 *254:D 2.64848e-05
2 *221:S 0.000554992
3 *253:Q 0.000100566
4 *80:8 0.000682043
5 *221:S *221:A0 2.75229e-05
6 *221:S *221:A1 5.69294e-05
7 *221:S *101:27 0.000421298
8 *254:D *105:10 5.01066e-05
9 *220:A0 *221:S 4.80285e-05
*RES
1 *253:Q *80:8 4.725 
2 *80:8 *221:S 13.035 
3 *80:8 *254:D 4.08375 
*END

*D_NET *81 0.00517387
*CONN
*I *204:A3 I *D sky130_fd_sc_hd__mux4_2
*I *271:X O *D sky130_fd_sc_hd__clkbuf_1
*CAP
1 *204:A3 0.00175785
2 *271:X 0.00175785
3 *204:A3 *204:A1 4.82919e-05
4 *204:A3 *284:A 4.82863e-05
5 *204:A3 *289:A 1.7635e-05
6 *204:A3 *84:30 6.15576e-06
7 *204:A3 *103:12 0.000197881
8 *204:A3 *103:25 7.3151e-05
9 *204:A3 *103:36 3.66286e-05
10 horz_bus_out[1] *204:A3 1.35106e-05
11 *204:S1 *204:A3 4.82919e-05
12 *215:A1 *204:A3 0.000446767
13 *215:B1 *204:A3 1.32017e-05
14 *215:B2 *204:A3 6.47594e-05
15 *240:D *204:A3 0.00014233
16 *33:10 *204:A3 9.79625e-05
17 *33:16 *204:A3 0.000116151
18 *38:30 *204:A3 0.000121102
19 *60:10 *204:A3 2.8867e-05
20 *61:12 *204:A3 8.20531e-05
21 *69:20 *204:A3 5.51351e-05
*RES
1 *271:X *204:A3 27.7795 
*END

*D_NET *82 0.0066296
*CONN
*I *221:A1 I *D sky130_fd_sc_hd__mux2_1
*I *272:X O *D sky130_fd_sc_hd__clkbuf_1
*CAP
1 *221:A1 0.0022126
2 *272:X 0.0022126
3 *221:A1 *221:A0 0.000120655
4 *221:A1 *222:A2 8.66976e-06
5 *221:A1 *285:A 0.000704446
6 *221:A1 *83:41 3.23391e-05
7 *221:A1 *108:22 0.000122325
8 *221:A1 *109:14 0.000125492
9 *220:A0 *221:A1 0.000358944
10 *221:S *221:A1 5.69294e-05
11 *238:D *221:A1 7.70553e-06
12 *250:D *221:A1 0.000490517
13 *252:D *221:A1 0.00010604
14 *79:14 *221:A1 7.03366e-05
*RES
1 *272:X *221:A1 48.04 
*END

*D_NET *83 0.00740433
*CONN
*I *226:A2 I *D sky130_fd_sc_hd__mux4_1
*I *218:A1 I *D sky130_fd_sc_hd__mux2_1
*I *223:A1 I *D sky130_fd_sc_hd__a21oi_1
*I *273:X O *D sky130_fd_sc_hd__buf_1
*CAP
1 *226:A2 0.000339626
2 *218:A1 0
3 *223:A1 0.000674735
4 *273:X 0.000996469
5 *83:41 0.000460352
6 *83:22 0.00179193
7 *223:A1 *222:A2 5.81016e-05
8 *223:A1 *222:A3 8.7152e-06
9 *223:A1 *232:A 0
10 *83:22 *205:A1 0.000214972
11 *83:22 *220:A1 5.98086e-05
12 *83:22 *226:A3 0
13 *83:22 *241:CLK 0.000128032
14 *83:22 *285:A 8.65961e-05
15 *83:22 *108:22 0.000564685
16 *83:41 *226:A3 0
17 *206:A1 *83:22 2.66586e-05
18 *208:A0 *83:22 7.23602e-05
19 *210:A *83:22 0
20 *211:A2 *83:22 0.000157099
21 *215:A1 *83:22 0
22 *218:A0 *226:A2 4.66108e-05
23 *218:S *226:A2 2.49909e-05
24 *220:A0 *83:41 2.92496e-05
25 *221:A1 *83:41 3.23391e-05
26 *226:A0 *226:A2 1.37328e-05
27 *226:S0 *226:A2 4.82919e-05
28 *240:D *83:22 0.000487575
29 *258:D *226:A2 2.16833e-05
30 *273:A *83:22 0.000407263
31 *274:A *83:22 0
32 *280:A *83:22 8.48074e-05
33 *280:A *83:41 0.000247027
34 *44:45 *226:A2 2.76356e-05
35 *44:47 *226:A2 0.000168148
36 *60:10 *83:22 3.58684e-05
37 *69:10 *83:41 0
38 *70:34 *223:A1 2.10582e-05
39 *72:14 *226:A2 6.79094e-05
*RES
1 *273:X *83:22 27.3375 
2 *83:22 *223:A1 7.07777 
3 *83:22 *83:41 5.0375 
4 *83:41 *218:A1 1.6 
5 *83:41 *226:A2 8.03875 
*END

*D_NET *84 0.0094951
*CONN
*I *219:A1 I *D sky130_fd_sc_hd__mux2_1
*I *227:A1 I *D sky130_fd_sc_hd__a21oi_1
*I *222:A1 I *D sky130_fd_sc_hd__mux4_1
*I *274:X O *D sky130_fd_sc_hd__buf_1
*CAP
1 *219:A1 0.000314239
2 *227:A1 0.000435329
3 *222:A1 3.5419e-05
4 *274:X 0.00132941
5 *84:41 0.000998543
6 *84:30 0.0016138
7 *219:A1 *233:A2 4.99619e-05
8 *219:A1 *295:A 0
9 *219:A1 *109:12 7.26475e-06
10 *219:A1 *109:55 0.00010778
11 *227:A1 *291:A 0.000453366
12 *84:30 *243:CLK 2.56157e-05
13 *84:30 *283:A 0
14 *84:30 *284:A 3.64998e-06
15 *84:30 *289:A 0
16 clk_out *84:30 1.1392e-05
17 shift_data_out *227:A1 4.66108e-05
18 *204:A3 *84:30 6.15576e-06
19 *208:S *84:30 4.41506e-05
20 *214:A0 *84:30 0.000593945
21 *214:A1 *84:30 0.000116165
22 *215:B2 *84:30 0
23 *219:S *219:A1 2.77283e-05
24 *226:S1 *227:A1 0.00026102
25 *234:B1 *219:A1 0
26 *235:CLK *227:A1 3.64722e-05
27 *235:D *219:A1 0
28 *235:D *84:41 0
29 *245:D *84:30 0.000166634
30 *248:D *84:30 1.45272e-05
31 *256:D *84:30 8.30989e-05
32 *258:D *219:A1 2.03578e-05
33 *258:D *227:A1 7.10578e-05
34 *258:D *84:41 3.39064e-05
35 *271:A *84:30 2.24423e-05
36 *33:10 *222:A1 5.83121e-06
37 *33:10 *84:30 8.65559e-05
38 *44:26 *84:30 0.000230379
39 *44:30 *84:30 7.9642e-06
40 *44:30 *84:41 0.000367563
41 *44:45 *84:41 0.000106648
42 *61:12 *84:30 5.64057e-05
43 *64:12 *84:30 1.70935e-05
44 *65:14 *84:30 3.41806e-05
45 *66:8 *84:30 2.08471e-05
46 *69:10 *219:A1 0.00032566
47 *69:10 *84:41 0.000523347
48 *69:20 *84:30 0.000101518
49 *69:20 *84:41 0.00014464
50 *70:8 *84:30 0.000119595
51 *73:6 *227:A1 0.000416828
*RES
1 *274:X *84:30 33.905 
2 *84:30 *222:A1 4.05 
3 *84:30 *84:41 8.01 
4 *84:41 *227:A1 13.5 
5 *84:41 *219:A1 10.62 
*END

*D_NET *85 0.00312463
*CONN
*I *283:A I *D sky130_fd_sc_hd__buf_2
*I *231:X O *D sky130_fd_sc_hd__a21o_1
*CAP
1 *283:A 0.000984292
2 *231:X 0.000984292
3 *283:A *222:A2 0.000319289
4 *283:A *222:A3 5.30242e-05
5 *283:A *234:B2 4.41506e-05
6 *283:A *256:CLK 5.83121e-06
7 shift_clk_out *283:A 8.34281e-06
8 *214:A0 *283:A 6.076e-05
9 *214:S *283:A 0.000155113
10 *215:B1 *283:A 4.21973e-05
11 *222:S1 *283:A 4.31088e-05
12 *230:B1 *283:A 8.40213e-05
13 *231:B1 *283:A 0
14 *234:B1 *283:A 8.23457e-05
15 *256:D *283:A 0.000161799
16 *70:25 *283:A 4.24864e-05
17 *70:34 *283:A 5.35797e-05
18 *84:30 *283:A 0
*RES
1 *231:X *283:A 27.415 
*END

*D_NET *86 0.00482069
*CONN
*I *284:A I *D sky130_fd_sc_hd__buf_1
*I *261:X O *D sky130_fd_sc_hd__buf_2
*CAP
1 *284:A 0.00187673
2 *261:X 0.00187673
3 *284:A *262:A 0.000139843
4 *284:A *289:A 0
5 carry_out *284:A 0.000107245
6 *204:A3 *284:A 4.82863e-05
7 *228:A2 *284:A 0.00013994
8 *271:A *284:A 0.000122331
9 *274:A *284:A 0
10 *72:10 *284:A 0.000366014
11 *72:40 *284:A 0.000139933
12 *84:30 *284:A 3.64998e-06
*RES
1 *261:X *284:A 40.245 
*END

*D_NET *87 0.00648148
*CONN
*I *285:A I *D sky130_fd_sc_hd__buf_2
*I *216:X O *D sky130_fd_sc_hd__mux2_1
*CAP
1 *285:A 0.00211329
2 *216:X 0.00211329
3 *285:A *216:A1 0.000193795
4 *285:A *289:A 0.000182043
5 *285:A *102:8 7.5431e-05
6 *285:A *108:22 8.53113e-06
7 horz_bus_out[0] *285:A 2.75229e-05
8 reset_out *285:A 2.77183e-05
9 *206:A1 *285:A 1.85564e-05
10 *206:S *285:A 3.72916e-05
11 *212:A1 *285:A 8.5002e-05
12 *212:S *285:A 9.0716e-05
13 *216:S *285:A 2.13396e-05
14 *217:S *285:A 5.88334e-05
15 *221:A1 *285:A 0.000704446
16 *241:D *285:A 0.000343488
17 *250:D *285:A 4.44927e-05
18 *275:A *285:A 0
19 *282:A *285:A 4.80748e-05
20 *75:10 *285:A 8.08439e-05
21 *76:8 *285:A 0.000120186
22 *83:22 *285:A 8.65961e-05
*RES
1 *216:X *285:A 46.09 
*END

*D_NET *88 0.00292518
*CONN
*I *286:A I *D sky130_fd_sc_hd__buf_2
*I *217:X O *D sky130_fd_sc_hd__mux2_1
*CAP
1 *286:A 0.000963792
2 *217:X 0.000963792
3 *286:A *99:79 0.000128572
4 *286:A *99:85 2.88929e-05
5 *286:A *108:22 7.23602e-05
6 horz_bus_out[1] *286:A 1.4399e-05
7 *210:A *286:A 0.000272978
8 *215:B2 *286:A 0.000163199
9 *240:D *286:A 0.000124151
10 *246:D *286:A 0.000193046
*RES
1 *217:X *286:A 22.11 
*END

*D_NET *89 0.000135193
*CONN
*I *287:A I *D sky130_fd_sc_hd__buf_2
*I *225:X O *D sky130_fd_sc_hd__mux2_1
*CAP
1 *287:A 6.46807e-05
2 *225:X 6.46807e-05
3 horz_bus_out[2] *287:A 5.83121e-06
*RES
1 *225:X *287:A 4.265 
*END

*D_NET *90 0.000257083
*CONN
*I *288:A I *D sky130_fd_sc_hd__buf_2
*I *229:X O *D sky130_fd_sc_hd__mux2_1
*CAP
1 *288:A 3.72531e-05
2 *229:X 3.72531e-05
3 *288:A *289:A 0.000117825
4 *30:14 *288:A 6.47516e-05
*RES
1 *229:X *288:A 8.58 
*END

*D_NET *91 0.00331578
*CONN
*I *289:A I *D sky130_fd_sc_hd__buf_2
*I *262:X O *D sky130_fd_sc_hd__clkbuf_1
*CAP
1 *289:A 0.00131795
2 *262:X 0.00131795
3 *289:A *256:CLK 0
4 *289:A *101:58 0
5 carry_out *289:A 3.86607e-05
6 horz_bus_out[0] *289:A 1.61831e-05
7 horz_bus_out[1] *289:A 7.96104e-06
8 horz_bus_out[2] *289:A 1.7635e-05
9 horz_bus_out[3] *289:A 7.96104e-06
10 *204:A3 *289:A 1.7635e-05
11 *271:A *289:A 0.000186099
12 *284:A *289:A 0
13 *285:A *289:A 0.000182043
14 *288:A *289:A 0.000117825
15 *30:14 *289:A 8.78674e-05
16 *67:12 *289:A 0
17 *72:10 *289:A 0
18 *84:30 *289:A 0
*RES
1 *262:X *289:A 29.475 
*END

*D_NET *92 0.00256498
*CONN
*I *209:A0 I *D sky130_fd_sc_hd__mux2_1
*I *216:A1 I *D sky130_fd_sc_hd__mux2_1
*I *275:X O *D sky130_fd_sc_hd__clkbuf_1
*CAP
1 *209:A0 0.000146345
2 *216:A1 6.5618e-05
3 *275:X 0.000542222
4 *92:10 0.000754186
5 *209:A0 *99:10 0.000116853
6 *92:10 *242:CLK 0.000342247
7 *92:10 *99:10 0.000148085
8 *217:S *216:A1 0.00022953
9 *285:A *216:A1 0.000193795
10 *34:20 *209:A0 2.60986e-05
*RES
1 *275:X *92:10 10.8 
2 *92:10 *216:A1 5.775 
3 *92:10 *209:A0 5.745 
*END

*D_NET *93 0.000991533
*CONN
*I *290:A I *D sky130_fd_sc_hd__buf_2
*I *263:X O *D sky130_fd_sc_hd__clkbuf_1
*CAP
1 *290:A 0.000341502
2 *263:X 0.000341502
3 *290:A *263:A 5.05521e-05
4 *290:A *101:54 5.83121e-06
5 *30:14 *290:A 0.000252146
*RES
1 *263:X *290:A 11.67 
*END

*D_NET *94 0.00312045
*CONN
*I *291:A I *D sky130_fd_sc_hd__buf_2
*I *234:B2 I *D sky130_fd_sc_hd__o2bb2a_1
*I *260:Q O *D sky130_fd_sc_hd__dfxtp_1
*CAP
1 *291:A 0.000251441
2 *234:B2 0.000206379
3 *260:Q 0.000111075
4 *94:8 0.000568895
5 *234:B2 *226:A3 0.000198128
6 shift_clk_out *234:B2 0.000524926
7 shift_clk_out *94:8 0.000316806
8 *227:A1 *291:A 0.000453366
9 *234:A2_N *234:B2 0.000171588
10 *234:A2_N *94:8 2.54436e-05
11 *235:CLK *94:8 0.000248254
12 *283:A *234:B2 4.41506e-05
*RES
1 *260:Q *94:8 7.275 
2 *94:8 *234:B2 9.87 
3 *94:8 *291:A 8.205 
*END

*D_NET *95 0.000751547
*CONN
*I *292:A I *D sky130_fd_sc_hd__buf_2
*I *218:X O *D sky130_fd_sc_hd__mux2_1
*CAP
1 *292:A 0.000295266
2 *218:X 0.000295266
3 *292:A *270:A 0.000141599
4 *218:S *292:A 5.83121e-06
5 *57:10 *292:A 1.35854e-05
*RES
1 *218:X *292:A 11.01 
*END

*D_NET *96 0.00136927
*CONN
*I *293:A I *D sky130_fd_sc_hd__buf_2
*I *219:X O *D sky130_fd_sc_hd__mux2_1
*CAP
1 *293:A 0.000283253
2 *219:X 0.000283253
3 *293:A *253:CLK 0.000441258
4 *293:A *109:55 2.65814e-06
5 vert_bus_out[1] *293:A 5.0751e-05
6 *219:S *293:A 0.000182014
7 *253:D *293:A 0.000126084
*RES
1 *219:X *293:A 10.445 
*END

*D_NET *97 0.00124864
*CONN
*I *294:A I *D sky130_fd_sc_hd__buf_2
*I *220:X O *D sky130_fd_sc_hd__mux2_1
*CAP
1 *294:A 0.000227608
2 *220:X 0.000227608
3 *294:A *202:A 0.000328774
4 *294:A *101:27 4.99619e-05
5 *294:A *109:12 3.18219e-05
6 *294:A *109:55 6.36438e-07
7 vert_bus_out[3] *294:A 0
8 *234:B1 *294:A 0.000320783
9 *280:A *294:A 6.14433e-05
*RES
1 *220:X *294:A 13.365 
*END

*D_NET *98 0.000690751
*CONN
*I *295:A I *D sky130_fd_sc_hd__buf_2
*I *221:X O *D sky130_fd_sc_hd__mux2_1
*CAP
1 *295:A 0.000178239
2 *221:X 0.000178239
3 *295:A *101:27 4.82919e-05
4 shift_clk_out *295:A 6.86914e-05
5 *219:A1 *295:A 0
6 *234:A2_N *295:A 7.06865e-05
7 *235:CLK *295:A 0.000112893
8 *235:D *295:A 3.37099e-05
*RES
1 *221:X *295:A 11.07 
*END

*D_NET *99 0.00896491
*CONN
*I *240:CLK I *D sky130_fd_sc_hd__dfxtp_1
*I *246:CLK I *D sky130_fd_sc_hd__dfxtp_1
*I *247:CLK I *D sky130_fd_sc_hd__dfxtp_1
*I *243:CLK I *D sky130_fd_sc_hd__dfxtp_1
*I *245:CLK I *D sky130_fd_sc_hd__dfxtp_1
*I *244:CLK I *D sky130_fd_sc_hd__dfxtp_1
*I *241:CLK I *D sky130_fd_sc_hd__dfxtp_1
*I *248:CLK I *D sky130_fd_sc_hd__dfxtp_1
*I *249:CLK I *D sky130_fd_sc_hd__dfxtp_1
*I *242:CLK I *D sky130_fd_sc_hd__dfxtp_1
*I *268:X O *D sky130_fd_sc_hd__clkbuf_2
*CAP
1 *240:CLK 0
2 *246:CLK 0
3 *247:CLK 0.000273835
4 *243:CLK 0.000211715
5 *245:CLK 0
6 *244:CLK 1.65021e-05
7 *241:CLK 0.000179427
8 *248:CLK 2.42333e-05
9 *249:CLK 0
10 *242:CLK 0.0002377
11 *268:X 0.000364151
12 *99:91 0.000371091
13 *99:85 0.000564692
14 *99:79 0.00066688
15 *99:53 0.000277169
16 *99:44 0.000240777
17 *99:40 0.000730298
18 *99:36 9.06068e-05
19 *99:29 0.000198297
20 *99:10 0.000769138
21 *99:10 *209:A1 0.000230429
22 *99:40 *108:22 4.20983e-05
23 *99:44 *108:22 7.44375e-05
24 *207:A_N *242:CLK 0.00034224
25 *207:A_N *99:10 0.000157602
26 *207:B *241:CLK 3.67779e-05
27 *207:B *242:CLK 4.41506e-05
28 *208:A1 *244:CLK 7.40446e-05
29 *208:A1 *99:53 0.000198939
30 *208:S *244:CLK 8.49205e-05
31 *208:S *99:53 0.000235573
32 *209:A0 *99:10 0.000116853
33 *209:S *99:10 1.74678e-05
34 *210:A *99:79 0.000228227
35 *212:A1 *243:CLK 0.000134127
36 *213:A0 *247:CLK 0.000118081
37 *215:A1 *241:CLK 7.17811e-05
38 *215:A1 *242:CLK 2.49909e-05
39 *240:D *99:79 3.73266e-05
40 *245:D *243:CLK 8.36331e-05
41 *245:D *99:91 4.41506e-05
42 *246:D *99:85 4.82319e-06
43 *248:D *247:CLK 9.68787e-05
44 *248:D *248:CLK 4.66108e-05
45 *248:D *99:53 6.29663e-05
46 *248:D *99:91 3.67779e-05
47 *249:D *99:29 8.58415e-05
48 *274:A *241:CLK 0
49 *276:A *242:CLK 0
50 *286:A *99:79 0.000128572
51 *286:A *99:85 2.88929e-05
52 *33:20 *247:CLK 0
53 *33:20 *99:91 0
54 *34:20 *99:10 0.000109009
55 *61:12 *241:CLK 0
56 *61:12 *99:79 2.75229e-05
57 *65:14 *243:CLK 3.89248e-06
58 *65:14 *99:91 5.63957e-05
59 *66:8 *243:CLK 1.83847e-05
60 *83:22 *241:CLK 0.000128032
61 *84:30 *243:CLK 2.56157e-05
62 *92:10 *242:CLK 0.000342247
63 *92:10 *99:10 0.000148085
*RES
1 *268:X *99:10 9.975 
2 *99:10 *242:CLK 9.975 
3 *99:10 *99:29 4.19 
4 *99:29 *249:CLK 1.6 
5 *99:29 *99:36 0.45 
6 *99:36 *99:40 2.87 
7 *99:40 *99:44 3.635 
8 *99:44 *248:CLK 2.05 
9 *99:44 *99:53 2.865 
10 *99:53 *241:CLK 9.53 
11 *99:53 *244:CLK 2.395 
12 *99:40 *99:79 10.07 
13 *99:79 *99:85 3.755 
14 *99:85 *99:91 4.175 
15 *99:91 *245:CLK 1.6 
16 *99:91 *243:CLK 9.545 
17 *99:85 *247:CLK 7.395 
18 *99:79 *246:CLK 1.6 
19 *99:36 *240:CLK 1.6 
*END

*D_NET *100 0.00894581
*CONN
*I *253:CLK I *D sky130_fd_sc_hd__dfxtp_1
*I *251:CLK I *D sky130_fd_sc_hd__dfxtp_1
*I *254:CLK I *D sky130_fd_sc_hd__dfxtp_1
*I *250:CLK I *D sky130_fd_sc_hd__dfxtp_1
*I *258:CLK I *D sky130_fd_sc_hd__dfxtp_1
*I *236:CLK I *D sky130_fd_sc_hd__dfxtp_1
*I *238:CLK I *D sky130_fd_sc_hd__dfxtp_1
*I *252:CLK I *D sky130_fd_sc_hd__dfxtp_1
*I *237:CLK I *D sky130_fd_sc_hd__dfxtp_1
*I *239:CLK I *D sky130_fd_sc_hd__dfxtp_1
*I *269:X O *D sky130_fd_sc_hd__clkbuf_2
*CAP
1 *253:CLK 0.000641095
2 *251:CLK 0.000177173
3 *254:CLK 9.20243e-05
4 *250:CLK 2.12116e-05
5 *258:CLK 0.000367435
6 *236:CLK 3.76639e-05
7 *238:CLK 0
8 *252:CLK 6.13081e-05
9 *237:CLK 0.000240432
10 *239:CLK 0
11 *269:X 0
12 *100:35 0.00048934
13 *100:26 0.000336662
14 *100:18 0.000193365
15 *100:16 0.000137067
16 *100:14 0.000477976
17 *100:12 0.000165354
18 *100:10 0.000252005
19 *100:8 0.000294393
20 *100:4 0.000687035
21 *237:CLK *205:A0 8.65961e-05
22 *237:CLK *220:A1 0.000138885
23 *237:CLK *108:22 0.000170794
24 *251:CLK *269:A 5.4003e-05
25 *252:CLK *220:A1 0.000179615
26 *253:CLK *269:A 2.49909e-05
27 *254:CLK *105:10 1.34503e-05
28 *258:CLK *270:A 8.75146e-05
29 *258:CLK *101:8 4.66108e-05
30 *100:8 *269:A 5.83121e-06
31 *100:10 *269:A 0.000139933
32 *100:12 *269:A 0.000109016
33 *100:12 *101:19 7.70828e-05
34 *100:14 *101:19 0.000114492
35 *100:16 *268:A 0.000231571
36 *100:16 *101:19 2.14129e-05
37 *100:18 *268:A 0.000185398
38 *100:26 *268:A 0.000164686
39 *100:26 *104:6 9.1631e-06
40 *100:35 *270:A 0.000103474
41 *100:35 *104:6 5.56048e-05
42 *100:35 *104:29 1.91597e-05
43 vert_bus_out[0] *251:CLK 8.48525e-05
44 vert_bus_out[0] *258:CLK 9.80032e-06
45 vert_bus_out[1] *253:CLK 1.74678e-05
46 *204:S1 *237:CLK 0.000105651
47 *205:S *237:CLK 4.64034e-05
48 *239:D *100:35 0.000303273
49 *250:D *250:CLK 4.82863e-05
50 *250:D *100:14 6.45236e-05
51 *250:D *100:16 0.00024612
52 *250:D *100:18 0.000175894
53 *250:D *100:26 0.000166346
54 *253:D *253:CLK 0.000126084
55 *278:A *100:26 0.000119066
56 *279:A *254:CLK 8.40269e-05
57 *281:A *258:CLK 3.83194e-05
58 *293:A *253:CLK 0.000441258
59 *59:8 *237:CLK 2.73058e-05
60 *59:8 *252:CLK 0.000130313
*RES
1 *269:X *100:4 1.6 
2 *100:4 *100:8 2.45 
3 *100:8 *100:10 1.635 
4 *100:10 *100:12 2.145 
5 *100:12 *100:14 1.38 
6 *100:14 *100:16 2.91 
7 *100:16 *100:18 2.145 
8 *100:18 *100:26 5.735 
9 *100:26 *239:CLK 1.6 
10 *100:26 *100:35 6.245 
11 *100:35 *237:CLK 8.325 
12 *100:35 *252:CLK 5.745 
13 *100:18 *238:CLK 3.6 
14 *100:16 *236:CLK 4.05 
15 *100:14 *258:CLK 8.43 
16 *100:12 *250:CLK 4.05 
17 *100:10 *254:CLK 5.085 
18 *100:8 *251:CLK 7.26 
19 *100:4 *253:CLK 11.05 
*END

*D_NET *101 0.013506
*CONN
*I *269:A I *D sky130_fd_sc_hd__clkbuf_2
*I *260:CLK I *D sky130_fd_sc_hd__dfxtp_1
*I *257:CLK I *D sky130_fd_sc_hd__dfxtp_1
*I *263:A I *D sky130_fd_sc_hd__clkbuf_1
*I *255:CLK I *D sky130_fd_sc_hd__dfxtp_1
*I *256:CLK I *D sky130_fd_sc_hd__dfxtp_1
*I *259:CLK I *D sky130_fd_sc_hd__dfxtp_1
*I *268:A I *D sky130_fd_sc_hd__clkbuf_2
*I *270:X O *D sky130_fd_sc_hd__clkbuf_2
*CAP
1 *269:A 0.000110342
2 *260:CLK 0.000325726
3 *257:CLK 9.89328e-05
4 *263:A 8.40794e-05
5 *255:CLK 0.000276348
6 *256:CLK 0.000540877
7 *259:CLK 2.08101e-05
8 *268:A 0.000405306
9 *270:X 1.36534e-05
10 *101:58 0.000996035
11 *101:54 0.000530284
12 *101:46 0.0010775
13 *101:38 0.00132288
14 *101:27 0.0011869
15 *101:19 0.00105114
16 *101:8 0.000479646
17 *268:A *205:A0 0.000139924
18 *268:A *236:D 0.000141592
19 *101:27 *221:A0 4.01778e-05
20 horz_bus_out[2] *256:CLK 8.66976e-06
21 vert_bus_out[0] *268:A 5.16348e-05
22 vert_bus_out[0] *269:A 0.000289698
23 vert_bus_out[0] *101:19 0.000201114
24 *221:S *101:27 0.000421298
25 *225:A0 *255:CLK 7.66388e-05
26 *225:A0 *257:CLK 2.76356e-05
27 *225:A0 *101:46 4.64502e-05
28 *225:A1 *101:54 1.56428e-05
29 *225:S *255:CLK 4.66108e-05
30 *234:B1 *101:46 0.000598668
31 *238:D *268:A 0.000452804
32 *250:D *268:A 0.000253799
33 *250:D *101:27 8.44909e-06
34 *251:CLK *269:A 5.4003e-05
35 *253:CLK *269:A 2.49909e-05
36 *256:D *256:CLK 0.000111993
37 *257:D *257:CLK 1.43717e-05
38 *257:D *101:54 0.000109073
39 *258:CLK *101:8 4.66108e-05
40 *259:D *101:38 8.54402e-07
41 *260:D *260:CLK 0.000116158
42 *277:A *268:A 2.86293e-05
43 *281:A *101:8 4.66108e-05
44 *283:A *256:CLK 5.83121e-06
45 *289:A *256:CLK 0
46 *289:A *101:58 0
47 *290:A *263:A 5.05521e-05
48 *290:A *101:54 5.83121e-06
49 *294:A *101:27 4.99619e-05
50 *295:A *101:27 4.82919e-05
51 *30:14 *257:CLK 7.47645e-05
52 *71:10 *256:CLK 0.000127183
53 *73:23 *260:CLK 8.66915e-05
54 *73:23 *101:38 6.63468e-05
55 *77:8 *101:27 4.66108e-05
56 *100:8 *269:A 5.83121e-06
57 *100:10 *269:A 0.000139933
58 *100:12 *269:A 0.000109016
59 *100:12 *101:19 7.70828e-05
60 *100:14 *101:19 0.000114492
61 *100:16 *268:A 0.000231571
62 *100:16 *101:19 2.14129e-05
63 *100:18 *268:A 0.000185398
64 *100:26 *268:A 0.000164686
*RES
1 *270:X *101:8 4.05 
2 *101:8 *268:A 15.945 
3 *101:8 *101:19 2.4 
4 *101:19 *101:27 14.645 
5 *101:27 *259:CLK 1.96 
6 *101:27 *101:38 3.225 
7 *101:38 *101:46 12.185 
8 *101:46 *101:54 5.57 
9 *101:54 *101:58 3.89 
10 *101:58 *256:CLK 11.28 
11 *101:58 *255:CLK 7.17 
12 *101:54 *263:A 3.085 
13 *101:46 *257:CLK 5.445 
14 *101:38 *260:CLK 9.5 
15 *101:19 *269:A 7.47 
*END

*D_NET *102 0.00410283
*CONN
*I *205:A0 I *D sky130_fd_sc_hd__mux2_1
*I *209:A1 I *D sky130_fd_sc_hd__mux2_1
*I *217:A1 I *D sky130_fd_sc_hd__mux2_1
*I *276:X O *D sky130_fd_sc_hd__clkbuf_1
*CAP
1 *205:A0 0.000499067
2 *209:A1 0.000125819
3 *217:A1 0.000128957
4 *276:X 0.000175873
5 *102:19 0.000731746
6 *102:8 0.00041169
7 *205:S *205:A0 0.000190289
8 *209:S *209:A1 2.41641e-05
9 *211:A1 *217:A1 2.49909e-05
10 *216:A0 *217:A1 0.000298431
11 *216:S *102:8 0.000141606
12 *216:S *102:19 4.38051e-05
13 *217:S *217:A1 0.000301899
14 *237:CLK *205:A0 8.65961e-05
15 *237:D *205:A0 5.01066e-05
16 *250:D *205:A0 2.79472e-05
17 *250:D *102:19 7.26629e-05
18 *268:A *205:A0 0.000139924
19 *276:A *102:8 0.000158441
20 *277:A *205:A0 1.93765e-05
21 *285:A *102:8 7.5431e-05
22 *58:6 *205:A0 3.64998e-06
23 *75:10 *102:8 0.000139933
24 *99:10 *209:A1 0.000230429
*RES
1 *276:X *102:8 8.805 
2 *102:8 *217:A1 7.155 
3 *102:8 *102:19 2.145 
4 *102:19 *209:A1 6.135 
5 *102:19 *205:A0 12.525 
*END

*D_NET *103 0.0045357
*CONN
*I *226:A3 I *D sky130_fd_sc_hd__mux4_1
*I *203:A I *D sky130_fd_sc_hd__inv_2
*I *204:A0 I *D sky130_fd_sc_hd__mux4_2
*I *205:A1 I *D sky130_fd_sc_hd__mux2_1
*I *277:X O *D sky130_fd_sc_hd__clkbuf_1
*CAP
1 *226:A3 0.000456187
2 *203:A 0
3 *204:A0 0
4 *205:A1 8.25128e-05
5 *277:X 0.000574007
6 *103:36 0.000686534
7 *103:25 0.000291101
8 *103:12 0.000717273
9 *226:A3 *232:A 6.65725e-05
10 *103:12 *204:A2 4.82863e-05
11 shift_clk_out *226:A3 1.07797e-05
12 *204:A3 *103:12 0.000197881
13 *204:A3 *103:25 7.3151e-05
14 *204:A3 *103:36 3.66286e-05
15 *204:S1 *103:12 4.66108e-05
16 *232:B *226:A3 2.8185e-05
17 *234:A2_N *226:A3 0.000248783
18 *234:B2 *226:A3 0.000198128
19 *240:D *205:A1 0.000151283
20 *277:A *103:12 8.23457e-05
21 *33:10 *103:36 8.5188e-06
22 *60:10 *205:A1 6.36888e-05
23 *69:10 *226:A3 0.000136905
24 *69:10 *103:36 2.05722e-05
25 *69:20 *103:36 8.53307e-05
26 *79:14 *226:A3 9.46859e-06
27 *83:22 *205:A1 0.000214972
28 *83:22 *226:A3 0
29 *83:41 *226:A3 0
*RES
1 *277:X *103:12 9.085 
2 *103:12 *205:A1 8.255 
3 *103:12 *103:25 0.795 
4 *103:25 *204:A0 1.6 
5 *103:25 *103:36 4.865 
6 *103:36 *203:A 3.6 
7 *103:36 *226:A3 15.1 
*END

*D_NET *104 0.00448901
*CONN
*I *201:A I *D sky130_fd_sc_hd__inv_2
*I *222:A3 I *D sky130_fd_sc_hd__mux4_1
*I *232:A I *D sky130_fd_sc_hd__nand2_1
*I *204:A2 I *D sky130_fd_sc_hd__mux4_2
*I *278:X O *D sky130_fd_sc_hd__buf_1
*CAP
1 *201:A 4.66594e-05
2 *222:A3 6.15184e-05
3 *232:A 0.000185102
4 *204:A2 9.3152e-05
5 *278:X 0.000240637
6 *104:50 0.000272549
7 *104:29 0.000969272
8 *104:6 0.000953589
9 *222:A3 *222:A2 0.00011228
10 *232:A *222:A2 0
11 *104:29 *270:A 1.63462e-05
12 *223:A1 *222:A3 8.7152e-06
13 *223:A1 *232:A 0
14 *223:A2 *201:A 1.13345e-05
15 *223:A2 *104:50 8.12198e-05
16 *223:B1 *104:29 3.62614e-05
17 *223:B1 *104:50 0.000121102
18 *225:A0 *201:A 9.43331e-06
19 *225:A0 *104:50 2.46151e-06
20 *226:A3 *232:A 6.65725e-05
21 *232:B *232:A 4.82919e-05
22 *234:A1_N *232:A 3.70488e-05
23 *234:A2_N *232:A 3.26777e-05
24 *235:D *232:A 1.12578e-05
25 *239:D *104:6 8.73563e-05
26 *239:D *104:29 0.000225285
27 *278:A *104:6 4.56204e-05
28 *280:A *104:29 0.000121561
29 *283:A *222:A3 5.30242e-05
30 *44:30 *232:A 0.000112135
31 *57:10 *204:A2 6.59891e-05
32 *60:10 *104:29 8.33308e-05
33 *69:48 *104:29 0.000119069
34 *70:34 *222:A3 1.3735e-05
35 *70:34 *232:A 1.22127e-05
36 *100:26 *104:6 9.1631e-06
37 *100:35 *104:6 5.56048e-05
38 *100:35 *104:29 1.91597e-05
39 *103:12 *204:A2 4.82863e-05
*RES
1 *278:X *104:6 4.465 
2 *104:6 *204:A2 6.92 
3 *104:6 *104:29 8.625 
4 *104:29 *232:A 9.755 
5 *104:29 *104:50 2.64 
6 *104:50 *222:A3 7.34 
7 *104:50 *201:A 2.41 
*END

*D_NET *105 0.00612166
*CONN
*I *262:A I *D sky130_fd_sc_hd__clkbuf_1
*I *233:B1 I *D sky130_fd_sc_hd__a21oi_1
*I *202:A I *D sky130_fd_sc_hd__inv_2
*I *279:X O *D sky130_fd_sc_hd__buf_1
*CAP
1 *262:A 0.000237294
2 *233:B1 0
3 *202:A 0.000229022
4 *279:X 0.00062437
5 *105:25 0.00106271
6 *105:10 0.00167881
7 *105:10 *109:10 2.11084e-05
8 *105:25 *109:10 4.43682e-05
9 carry_out *262:A 0.000585033
10 *228:A2 *262:A 0.000131408
11 *234:A2_N *105:25 0.000208559
12 *235:D *105:25 1.43717e-05
13 *251:D *202:A 0
14 *254:CLK *105:10 1.34503e-05
15 *254:D *105:10 5.01066e-05
16 *260:D *105:25 0.000148622
17 *279:A *202:A 0.000201503
18 *279:A *105:10 5.83121e-06
19 *280:A *202:A 0.000131264
20 *284:A *262:A 0.000139843
21 *294:A *202:A 0.000328774
22 *69:10 *105:10 1.03423e-05
23 *69:10 *105:25 3.24055e-05
24 *72:10 *262:A 7.5416e-05
25 *72:14 *262:A 1.56428e-05
26 *72:40 *262:A 0.000131401
*RES
1 *279:X *105:10 8.38 
2 *105:10 *202:A 11.36 
3 *105:10 *105:25 12.18 
4 *105:25 *233:B1 1.6 
5 *105:25 *262:A 13.58 
*END

*D_NET *106 0.00234853
*CONN
*I *270:A I *D sky130_fd_sc_hd__clkbuf_2
*I *280:X O *D sky130_fd_sc_hd__clkbuf_1
*CAP
1 *270:A 0.000863843
2 *280:X 0.000863843
3 vert_bus_out[0] *270:A 0.000118081
4 *258:CLK *270:A 8.75146e-05
5 *280:A *270:A 1.56428e-05
6 *292:A *270:A 0.000141599
7 *57:10 *270:A 0.000138188
8 *100:35 *270:A 0.000103474
9 *104:29 *270:A 1.63462e-05
*RES
1 *280:X *270:A 18.645 
*END

*D_NET *107 0.000426244
*CONN
*I *236:D I *D sky130_fd_sc_hd__dfxtp_1
*I *281:X O *D sky130_fd_sc_hd__clkbuf_1
*CAP
1 *236:D 0.000133414
2 *281:X 0.000133414
3 vert_bus_out[0] *236:D 5.83121e-06
4 *268:A *236:D 0.000141592
5 *281:A *236:D 1.19928e-05
*RES
1 *281:X *236:D 9.42375 
*END

*D_NET *108 0.00635594
*CONN
*I *220:A1 I *D sky130_fd_sc_hd__mux2_1
*I *204:A1 I *D sky130_fd_sc_hd__mux4_2
*I *282:X O *D sky130_fd_sc_hd__clkbuf_1
*CAP
1 *220:A1 0.000300112
2 *204:A1 2.14906e-05
3 *282:X 0.00113383
4 *108:22 0.00145544
5 *204:A3 *204:A1 4.82919e-05
6 *208:A0 *108:22 3.86607e-05
7 *211:A2 *108:22 0.000293032
8 *221:A1 *108:22 0.000122325
9 *237:CLK *220:A1 0.000138885
10 *237:CLK *108:22 0.000170794
11 *242:D *108:22 7.85299e-05
12 *252:CLK *220:A1 0.000179615
13 *272:A *108:22 0.000275032
14 *273:A *108:22 9.40363e-05
15 *280:A *220:A1 0.000594005
16 *285:A *108:22 8.53113e-06
17 *286:A *108:22 7.23602e-05
18 *34:10 *108:22 3.86607e-05
19 *62:6 *108:22 8.23457e-05
20 *79:14 *220:A1 0.000468933
21 *83:22 *220:A1 5.98086e-05
22 *83:22 *108:22 0.000564685
23 *99:40 *108:22 4.20983e-05
24 *99:44 *108:22 7.44375e-05
*RES
1 *282:X *108:22 29.815 
2 *108:22 *204:A1 4.05 
3 *108:22 *220:A1 13.695 
*END

*D_NET *109 0.00637907
*CONN
*I *233:A2 I *D sky130_fd_sc_hd__a21oi_1
*I *219:A0 I *D sky130_fd_sc_hd__mux2_1
*I *221:A0 I *D sky130_fd_sc_hd__mux2_1
*I *226:A1 I *D sky130_fd_sc_hd__mux4_1
*I *222:A2 I *D sky130_fd_sc_hd__mux4_1
*I *235:Q O *D sky130_fd_sc_hd__dfxtp_1
*CAP
1 *233:A2 0.000834701
2 *219:A0 0
3 *221:A0 5.80246e-05
4 *226:A1 0
5 *222:A2 0.000774852
6 *235:Q 7.13494e-05
7 *109:55 0.0010273
8 *109:14 0.000904434
9 *109:12 0.000294289
10 *109:10 0.000370627
11 carry_out *233:A2 0
12 shift_clk_out *222:A2 0.000212993
13 vert_bus_out[3] *233:A2 1.98869e-05
14 *219:A1 *233:A2 4.99619e-05
15 *219:A1 *109:12 7.26475e-06
16 *219:A1 *109:55 0.00010778
17 *219:S *233:A2 5.062e-06
18 *219:S *109:55 1.23238e-05
19 *221:A1 *221:A0 0.000120655
20 *221:A1 *222:A2 8.66976e-06
21 *221:A1 *109:14 0.000125492
22 *221:S *221:A0 2.75229e-05
23 *222:A3 *222:A2 0.00011228
24 *223:A1 *222:A2 5.81016e-05
25 *232:A *222:A2 0
26 *233:A1 *233:A2 9.50342e-06
27 *234:B1 *109:55 8.15611e-05
28 *260:D *233:A2 8.53113e-06
29 *266:A *233:A2 0.000173249
30 *280:A *109:12 0
31 *280:A *109:14 0
32 *283:A *222:A2 0.000319289
33 *293:A *109:55 2.65814e-06
34 *294:A *109:12 3.18219e-05
35 *294:A *109:55 6.36438e-07
36 *69:10 *222:A2 1.00941e-05
37 *69:10 *109:10 0.000162311
38 *69:10 *109:12 8.5225e-05
39 *69:10 *109:14 0.000184965
40 *101:27 *221:A0 4.01778e-05
41 *105:10 *109:10 2.11084e-05
42 *105:25 *109:10 4.43682e-05
*RES
1 *235:Q *109:10 5.535 
2 *109:10 *109:12 2.145 
3 *109:12 *109:14 3.93 
4 *109:14 *222:A2 11.9242 
5 *109:14 *226:A1 3.6 
6 *109:12 *221:A0 5.085 
7 *109:10 *109:55 5.375 
8 *109:55 *219:A0 1.6 
9 *109:55 *233:A2 15.365 
*END
